@relation train

@attribute battery_power numeric
@attribute blue numeric
@attribute clock_speed numeric
@attribute dual_sim numeric
@attribute fc numeric
@attribute four_g numeric
@attribute int_memory numeric
@attribute m_dep numeric
@attribute mobile_wt numeric
@attribute n_cores numeric
@attribute pc numeric
@attribute px_height numeric
@attribute px_width numeric
@attribute ram numeric
@attribute sc_h numeric
@attribute sc_w numeric
@attribute talk_time numeric
@attribute three_g numeric
@attribute touch_screen numeric
@attribute wifi numeric
@attribute price_range {0,1,2,3}

@data
0.0347361389445557,1.0,0.6800000000000002,1.0,0.0,1.0,0.2580645161290322,0.6666666666666666,0.4666666666666667,0.1428571428571428,0.05,0.6566326530612245,0.9292389853137516,0.8134687332977018,0.5,0.5555555555555556,1.0,1.0,0.0,0.0,3
0.5490981963927857,1.0,0.8,1.0,0.5882352941176471,1.0,0.4193548387096774,0.1111111111111111,0.4249999999999999,0.4285714285714285,0.6000000000000001,0.0826530612244898,0.0794392523364486,0.4371993586317477,0.3571428571428571,0.0,0.7222222222222221,1.0,1.0,1.0,1
0.115564462257849,1.0,0.96,1.0,0.0588235294117647,0.0,0.3064516129032257,0.1111111111111111,0.9833333333333332,0.2857142857142857,0.2,0.2938775510204082,0.8738317757009346,0.2469267771245323,0.0714285714285714,0.1666666666666666,0.1111111111111111,1.0,1.0,1.0,0
0.993987975951904,1.0,0.96,1.0,0.4705882352941176,0.0,0.2419354838709677,0.0,0.9416666666666668,1.0,0.75,0.3209183673469388,0.1214953271028037,0.5646712987707108,0.1428571428571429,0.0,0.8888888888888888,1.0,1.0,0.0,2
0.1389445557782231,1.0,0.6000000000000001,1.0,0.0,0.0,0.532258064516129,0.0,0.4666666666666667,0.0,0.0,0.788265306122449,0.7316421895861147,0.4588455371459112,0.5,0.5,0.7777777777777777,0.0,1.0,1.0,1
0.2130928523714095,0.0,0.0,1.0,0.1176470588235294,0.0,0.9032258064516128,0.2222222222222222,0.6666666666666666,0.4285714285714285,0.2,0.2387755102040816,0.1295060080106809,0.2747194013896312,0.8571428571428571,0.3888888888888888,0.8333333333333333,0.0,0.0,1.0,0
0.5477621910487642,1.0,0.32,0.0,0.0,1.0,0.9838709677419356,0.3333333333333333,0.2416666666666667,1.0,0.45,0.4168367346938776,0.2943925233644859,0.3228220203099946,0.1428571428571429,0.3333333333333333,0.7777777777777777,1.0,1.0,1.0,1
0.2945891783567135,0.0,0.3599999999999999,1.0,0.4705882352941176,0.0,0.4032258064516129,0.4444444444444445,0.0916666666666666,0.4285714285714285,0.45,0.3846938775510204,0.6889185580774366,0.0884553714591127,0.0714285714285714,0.1666666666666666,0.6111111111111112,0.0,1.0,1.0,0
0.5237140948563795,0.0,0.76,0.0,0.0588235294117647,1.0,0.7903225806451613,1.0,0.5000000000000001,0.8571428571428572,0.1,0.2423469387755102,0.0,0.4911811865312666,0.2142857142857143,0.0,0.4444444444444445,1.0,0.0,0.0,1
0.2317969271877088,1.0,0.92,0.0,0.0588235294117647,0.0,0.0967741935483871,0.0,0.1916666666666666,0.8571428571428572,0.15,0.0035714285714285,0.5300400534045393,0.0481026189203634,0.3571428571428571,0.3333333333333333,0.7222222222222221,1.0,1.0,1.0,0
0.4402137608550435,0.0,0.24,0.0,0.0588235294117647,1.0,0.9838709677419356,0.6666666666666666,0.7166666666666667,0.2857142857142857,0.1,0.3887755102040817,0.2396528704939919,0.0905932656333511,0.9285714285714284,0.2222222222222222,0.7222222222222221,1.0,0.0,1.0,0
0.9325317301269208,0.0,1.0000000000000002,0.0,0.0588235294117647,1.0,0.3064516129032257,0.4444444444444445,0.9333333333333336,1.0,0.1,0.6688775510204082,0.9579439252336448,0.0045430251202565,0.8571428571428571,0.3333333333333333,0.0555555555555555,1.0,1.0,1.0,0
0.4041416165664663,1.0,0.56,0.0,0.2352941176470588,0.0,0.8387096774193549,0.6666666666666666,0.2249999999999999,0.2857142857142857,0.45,0.313265306122449,0.4753004005340453,0.6461785141635489,0.2857142857142857,0.1666666666666666,0.3888888888888889,1.0,0.0,1.0,2
0.3413493653974616,0.0,0.0,1.0,0.2352941176470588,0.0,0.5967741935483871,0.0,0.6749999999999999,0.4285714285714285,0.3,0.45,0.4639519359145527,0.6803848209513629,0.2142857142857143,0.0,0.4444444444444445,1.0,1.0,0.0,2
0.5564462257849032,1.0,0.76,0.0,0.2941176470588235,1.0,0.6451612903225806,0.5555555555555555,0.2916666666666667,0.5714285714285714,0.7000000000000001,0.6056122448979593,0.9839786381842456,0.6109032602886156,0.3571428571428571,0.0555555555555555,0.3333333333333333,1.0,0.0,0.0,3
0.983299933199733,1.0,0.76,1.0,0.3529411764705882,0.0,0.7096774193548387,0.0,0.9416666666666668,0.4285714285714285,0.5,0.3566326530612245,0.2343124165554072,0.1023516835916621,0.0714285714285714,0.0,0.0555555555555555,0.0,0.0,1.0,0
0.6305945223780896,1.0,0.76,1.0,0.4117647058823529,1.0,0.2903225806451612,0.3333333333333333,0.775,0.8571428571428572,0.75,0.6494897959183674,0.5640854472630173,0.3166755745590593,0.1428571428571429,0.2222222222222222,0.6111111111111112,1.0,1.0,1.0,1
0.5243820975283902,1.0,0.72,0.0,0.5882352941176471,1.0,0.2258064516129032,0.0,0.15,0.1428571428571428,0.9,0.0091836734693877,0.1081441922563417,0.0448957776590058,0.3571428571428571,0.2777777777777778,0.1111111111111111,1.0,1.0,0.0,0
0.1543086172344689,1.0,0.32,0.0,0.2941176470588235,1.0,0.4838709677419355,0.3333333333333333,0.6916666666666668,1.0,0.35,0.8474489795918368,0.8918558077436582,0.9692677712453232,0.5,0.1111111111111111,0.1666666666666666,1.0,0.0,1.0,3
0.2444889779559118,1.0,0.4000000000000001,0.0,0.0,1.0,0.8870967741935484,0.0,0.6583333333333333,0.4285714285714285,0.0,0.1474489795918367,0.1495327102803738,0.5080171031533939,0.2142857142857143,0.3333333333333333,0.8888888888888888,1.0,0.0,0.0,1
0.7454909819639279,1.0,0.8400000000000001,0.0,0.8235294117647058,0.0,0.4354838709677419,0.8888888888888888,0.275,0.7142857142857142,1.0,0.1443877551020408,0.1174899866488651,0.9163548904329236,0.5714285714285714,0.0555555555555555,0.8888888888888888,0.0,0.0,0.0,3
0.6225784903139613,1.0,0.72,0.0,0.4705882352941176,1.0,0.4032258064516129,0.8888888888888888,0.6083333333333333,0.8571428571428572,0.6000000000000001,0.8260204081632654,0.7683578104138851,0.9738107963655798,0.9285714285714284,0.8888888888888888,0.0,1.0,0.0,1.0,3
0.685370741482966,0.0,0.8800000000000001,0.0,0.5882352941176471,1.0,0.935483870967742,0.0,0.6166666666666666,0.5714285714285714,0.7000000000000001,0.2683673469387755,0.4112149532710279,0.4869053981827899,0.0,0.1666666666666666,0.4999999999999999,1.0,1.0,1.0,2
0.6753507014028057,1.0,0.48,0.0,0.7058823529411764,0.0,0.064516129032258,0.6666666666666666,0.6833333333333335,0.8571428571428572,0.8500000000000001,0.1045918367346938,0.2563417890520694,0.5555852485301978,0.7142857142857143,0.3888888888888888,0.2777777777777777,1.0,1.0,1.0,2
0.2525050100200401,0.0,0.4000000000000001,1.0,0.0,1.0,0.3064516129032257,0.7777777777777778,0.8916666666666667,0.4285714285714285,0.1,0.2362244897959184,0.3591455273698264,0.7137894174238375,0.6428571428571429,0.7222222222222222,0.4999999999999999,1.0,0.0,1.0,2
0.957247828991316,1.0,0.8800000000000001,0.0,0.4705882352941176,1.0,0.0,0.0,0.3166666666666666,0.4285714285714285,0.8,0.123469387755102,0.4185580774365821,0.5168359166221271,0.9285714285714284,0.0555555555555555,0.3888888888888889,1.0,0.0,1.0,2
0.3146292585170341,1.0,0.8800000000000001,1.0,0.0588235294117647,0.0,0.0483870967741935,1.0,0.3833333333333334,0.4285714285714285,0.1,0.3505102040816327,0.2109479305740987,0.7426509887760555,0.5,0.3888888888888888,0.9444444444444444,1.0,0.0,1.0,2
0.3927855711422846,1.0,0.16,1.0,0.7058823529411764,1.0,0.0,0.6666666666666666,0.5416666666666666,0.5714285714285714,0.75,0.3244897959183673,0.5066755674232309,0.6704970603955104,0.5714285714285714,0.6666666666666666,0.4444444444444445,1.0,0.0,1.0,2
0.0681362725450901,1.0,0.0799999999999999,1.0,0.0,1.0,1.0,0.1111111111111111,0.6333333333333334,0.7142857142857142,0.0,0.939795918367347,0.9799732977303072,0.0929983965793693,0.3571428571428571,0.2222222222222222,0.3333333333333333,1.0,1.0,1.0,0
0.9706078824315298,0.0,0.0,1.0,0.0,0.0,0.3548387096774194,0.7777777777777778,0.8916666666666667,0.4285714285714285,0.0,0.2612244897959184,0.4332443257676902,0.1186531266702298,0.7857142857142857,0.1666666666666666,0.1666666666666666,1.0,1.0,1.0,0
0.6339345357381431,0.0,0.6400000000000001,0.0,0.0588235294117647,0.0,0.467741935483871,0.5555555555555555,0.2833333333333333,0.5714285714285714,0.2,0.8025510204081633,0.760347129506008,0.1437733832175307,0.4285714285714286,0.2777777777777778,0.3888888888888889,0.0,1.0,1.0,1
0.3112892451569806,1.0,0.4400000000000001,0.0,0.2352941176470588,0.0,0.3709677419354839,0.5555555555555555,0.0999999999999999,1.0,0.45,0.1239795918367347,0.7623497997329773,0.7536076964190273,0.1428571428571429,0.2222222222222222,0.8888888888888888,0.0,1.0,1.0,2
0.8583834335337341,0.0,0.0,0.0,0.5294117647058824,1.0,0.9032258064516128,0.6666666666666666,0.6749999999999999,0.8571428571428572,0.5,0.1178571428571428,0.7817089452603472,0.6702298236237305,0.2857142857142857,0.1666666666666666,0.2777777777777777,1.0,1.0,1.0,3
0.2191048764195057,0.0,0.0,0.0,0.0,0.0,0.8709677419354839,0.5555555555555555,0.4083333333333333,0.8571428571428572,0.05,0.0464285714285714,0.945260347129506,0.1507215392838054,0.5,0.3333333333333333,0.4999999999999999,1.0,0.0,1.0,0
0.8964595858383435,0.0,0.92,0.0,0.0588235294117647,1.0,0.967741935483871,0.7777777777777778,0.2,0.2857142857142857,0.35,0.0107142857142857,0.2216288384512683,0.9735435595938,0.0,0.2222222222222222,0.2222222222222222,1.0,0.0,1.0,3
0.0086840347361389,1.0,0.96,1.0,0.2941176470588235,0.0,0.2580645161290322,0.6666666666666666,0.5083333333333334,0.1428571428571428,0.4,0.5525510204081633,0.6622162883845126,0.1934794227685729,0.5714285714285714,0.3888888888888888,0.7777777777777777,0.0,0.0,1.0,0
0.5136940547762192,1.0,0.0399999999999999,1.0,0.1176470588235294,1.0,0.4838709677419355,0.4444444444444445,0.175,0.8571428571428572,0.3,0.1525510204081633,0.2303070761014686,0.9390700160342064,0.0,0.1666666666666666,0.6111111111111112,1.0,1.0,0.0,3
0.1135604542418169,0.0,0.16,1.0,0.5882352941176471,0.0,0.4516129032258065,0.6666666666666666,0.2083333333333333,0.8571428571428572,0.8500000000000001,0.4346938775510204,0.4552736982643525,0.6007482629609834,0.0714285714285714,0.2222222222222222,0.7222222222222221,1.0,0.0,0.0,2
0.7020708082832332,1.0,0.6800000000000002,0.0,0.3529411764705882,1.0,0.1774193548387096,0.1111111111111111,0.3583333333333333,0.7142857142857142,0.45,0.1372448979591836,0.3511348464619492,0.5737573490112239,0.2857142857142857,0.1111111111111111,0.3888888888888889,1.0,1.0,1.0,2
0.6085504342017369,1.0,0.76,0.0,0.2941176470588235,0.0,0.3709677419354839,0.7777777777777778,0.1333333333333334,1.0,0.8500000000000001,0.263265306122449,0.930574098798398,0.155264564404062,0.7142857142857143,0.5,0.1111111111111111,0.0,0.0,1.0,1
0.2484969939879759,1.0,0.0,1.0,0.3529411764705882,0.0,0.0967741935483871,0.5555555555555555,0.6,0.8571428571428572,0.45,0.641326530612245,0.6081441922563418,0.0852485301977551,0.7142857142857143,0.4444444444444444,0.2777777777777777,1.0,0.0,1.0,0
0.0146960587842351,0.0,0.8400000000000001,1.0,0.0588235294117647,0.0,0.1935483870967742,0.0,0.6250000000000001,1.0,0.1,0.1551020408163265,0.3618157543391188,0.3129342597541421,0.2857142857142857,0.0555555555555555,0.3888888888888889,0.0,1.0,0.0,0
0.0233800935203741,1.0,0.3599999999999999,0.0,0.0,1.0,0.8225806451612904,0.6666666666666666,0.4583333333333333,0.2857142857142857,0.0,0.2790816326530612,0.1368491321762349,0.255211117049706,0.7142857142857143,0.5555555555555556,0.2777777777777777,1.0,0.0,1.0,0
0.1516366065464262,0.0,0.72,1.0,0.2352941176470588,0.0,0.3387096774193548,0.7777777777777778,0.2583333333333333,0.4285714285714285,0.25,0.0642857142857143,0.2116154873164218,0.0537145911277391,0.8571428571428571,0.5555555555555556,0.7777777777777777,1.0,1.0,1.0,0
0.5664662658650635,1.0,0.6800000000000002,1.0,0.2941176470588235,0.0,0.8548387096774194,0.0,0.2083333333333333,0.8571428571428572,0.35,0.3306122448979592,0.3464619492656875,0.5895243185462319,0.7142857142857143,0.3888888888888888,0.8333333333333333,1.0,0.0,1.0,2
0.2364729458917835,1.0,0.0,0.0,0.1176470588235294,1.0,0.9193548387096774,0.4444444444444445,0.6583333333333333,0.1428571428571428,0.15,0.5244897959183674,0.4646194926568758,0.4326563335114911,0.7857142857142857,0.4444444444444444,0.3333333333333333,1.0,1.0,1.0,1
0.989311957247829,1.0,0.4400000000000001,0.0,0.1176470588235294,1.0,0.1612903225806451,0.1111111111111111,0.0,0.5714285714285714,1.0,0.1464285714285714,0.062082777036048,0.4190272581507215,0.5714285714285714,0.1666666666666666,0.6666666666666665,1.0,1.0,1.0,1
0.0207080828323313,1.0,0.12,1.0,0.1764705882352941,0.0,0.0967741935483871,0.0,0.9416666666666668,0.5714285714285714,0.5,0.6188775510204082,0.5700934579439252,0.1261357562800641,0.5714285714285714,0.2777777777777778,0.3333333333333333,1.0,1.0,0.0,0
0.1977287909151637,1.0,0.96,1.0,0.2352941176470588,0.0,0.5806451612903226,0.4444444444444445,0.0833333333333333,0.4285714285714285,0.3,0.3892857142857143,0.609479305740988,0.0892570817744521,0.2857142857142857,0.1111111111111111,0.2222222222222222,0.0,1.0,0.0,0
0.6606546426185705,1.0,0.0,1.0,0.2352941176470588,1.0,1.0,0.2222222222222222,0.5833333333333334,1.0,0.4,0.7229591836734695,0.6435246995994659,0.8936397648316408,0.8571428571428571,0.5,0.2777777777777777,1.0,1.0,1.0,3
0.1790247160988644,1.0,0.96,1.0,0.0,0.0,0.1129032258064516,0.0,0.85,0.5714285714285714,0.05,0.1265306122448979,0.2496662216288384,0.9861036878674504,0.0,0.1111111111111111,0.2777777777777777,0.0,0.0,0.0,3
0.0374081496325985,0.0,0.0,1.0,0.1764705882352941,0.0,0.2419354838709677,0.1111111111111111,0.075,0.7142857142857142,0.2,0.1642857142857143,0.1401869158878504,0.6325494388027793,0.8571428571428571,0.8888888888888888,0.7777777777777777,0.0,0.0,0.0,1
0.5971943887775552,1.0,0.92,0.0,0.0,1.0,0.8548387096774194,0.5555555555555555,0.3166666666666666,0.2857142857142857,0.05,0.3989795918367347,0.8591455273698263,0.8329770176376269,0.4285714285714286,0.1111111111111111,0.7777777777777777,1.0,1.0,0.0,3
0.0374081496325985,1.0,0.4400000000000001,0.0,0.0,0.0,0.3548387096774194,0.4444444444444445,0.3750000000000001,0.2857142857142857,0.0,0.5770408163265307,0.5440587449933244,0.2803313735970069,0.5,0.4444444444444444,0.0555555555555555,1.0,0.0,1.0,0
0.1950567802271209,1.0,0.56,1.0,0.0,1.0,0.6612903225806451,0.2222222222222222,0.3666666666666666,1.0,0.1,0.0076530612244897,0.4646194926568758,0.2121859967931587,0.4285714285714286,0.5,0.0555555555555555,1.0,1.0,1.0,0
0.4682698730794924,1.0,0.76,1.0,0.0,0.0,0.2741935483870967,0.0,0.35,0.1428571428571428,0.05,0.2061224489795918,0.829105473965287,0.0905932656333511,1.0,0.0,0.0555555555555555,0.0,0.0,0.0,0
0.6880427521710089,0.0,0.6000000000000001,0.0,0.0,1.0,0.935483870967742,0.3333333333333333,0.6833333333333335,0.7142857142857142,0.05,0.3188775510204082,0.1769025367156208,0.6060929983965793,0.5714285714285714,0.611111111111111,0.2777777777777777,1.0,0.0,0.0,2
0.5985303941215766,0.0,0.96,1.0,0.7647058823529411,0.0,0.1129032258064516,0.4444444444444445,0.0583333333333333,0.7142857142857142,0.9,0.6673469387755102,0.9953271028037384,0.7699091394975948,0.5,0.0555555555555555,0.4999999999999999,1.0,1.0,1.0,3
0.0100200400801603,1.0,0.0799999999999999,1.0,0.0588235294117647,0.0,0.4516129032258065,0.8888888888888888,0.4833333333333333,0.0,0.6000000000000001,0.0642857142857143,0.1321762349799732,0.928647781934794,0.8571428571428571,0.7222222222222222,0.7222222222222221,0.0,0.0,0.0,2
0.3627254509018036,0.0,0.52,0.0,0.2352941176470588,1.0,0.1612903225806451,0.6666666666666666,0.2,0.7142857142857142,0.25,0.6275510204081634,0.5093457943925234,0.4110101549973276,0.9285714285714284,0.3888888888888888,0.9444444444444444,1.0,1.0,1.0,1
0.8363393453573815,0.0,0.0799999999999999,0.0,0.2352941176470588,0.0,0.6129032258064516,0.5555555555555555,0.925,0.4285714285714285,0.55,0.842857142857143,0.9899866488651534,0.2287546766435061,0.2142857142857143,0.1111111111111111,0.7222222222222221,1.0,1.0,1.0,1
0.1763527054108217,0.0,0.0,1.0,0.0,1.0,0.7258064516129032,0.2222222222222222,0.2916666666666667,1.0,0.05,0.651530612244898,0.6201602136181575,0.5309994655264564,0.4285714285714286,0.3888888888888888,0.1111111111111111,1.0,0.0,1.0,2
0.4021376085504342,0.0,0.2,1.0,0.3529411764705882,0.0,0.4354838709677419,0.6666666666666666,0.2583333333333333,0.7142857142857142,0.4,0.5051020408163266,0.6582109479305741,0.4225013361838589,0.2142857142857143,0.3888888888888888,0.7777777777777777,0.0,1.0,1.0,1
0.2725450901803607,1.0,0.3599999999999999,0.0,0.0,0.0,0.8225806451612904,0.2222222222222222,0.0166666666666667,1.0,0.0,0.3239795918367347,0.3157543391188251,0.7832709780865846,0.5,0.5,0.1111111111111111,1.0,0.0,0.0,2
0.4088176352705411,0.0,0.0399999999999999,1.0,0.0,0.0,0.3709677419354839,0.2222222222222222,0.5416666666666666,0.0,0.5,0.5341836734693878,0.5420560747663551,0.0056119722073757,0.4285714285714286,0.1111111111111111,0.5555555555555556,1.0,0.0,1.0,0
0.7648630594522379,0.0,0.8,0.0,0.1764705882352941,1.0,0.3709677419354839,0.5555555555555555,1.0,0.1428571428571428,0.25,0.1076530612244898,0.739652870493992,0.1149118118653126,0.2142857142857143,0.3333333333333333,0.4999999999999999,1.0,1.0,0.0,0
0.7267869071476287,1.0,0.3599999999999999,0.0,0.1764705882352941,1.0,0.3870967741935484,0.0,0.1666666666666667,1.0,0.8,0.8535714285714286,0.8404539385847796,0.9925173703901656,0.7857142857142857,0.4444444444444444,0.8888888888888888,1.0,0.0,1.0,3
0.4362057448229793,0.0,0.6000000000000001,0.0,0.3529411764705882,1.0,0.532258064516129,0.7777777777777778,0.6583333333333333,0.5714285714285714,0.8,0.5117346938775511,0.8858477970627503,0.8033137359700694,0.7857142857142857,0.8333333333333333,0.7777777777777777,1.0,0.0,0.0,3
0.518370073480294,0.0,1.0000000000000002,0.0,0.0,1.0,0.6290322580645161,0.2222222222222222,1.0,0.4285714285714285,0.15,0.4602040816326531,0.3938584779706274,0.0462319615179048,0.2857142857142857,0.2222222222222222,0.6666666666666665,1.0,1.0,1.0,0
0.93186372745491,0.0,0.0,1.0,0.4705882352941176,1.0,0.0806451612903225,0.3333333333333333,0.5083333333333334,0.1428571428571428,0.65,0.2280612244897959,0.1962616822429906,0.9160876536611438,0.2857142857142857,0.3888888888888888,0.8888888888888888,1.0,0.0,0.0,3
0.3954575818303274,0.0,0.0,0.0,0.0588235294117647,1.0,0.467741935483871,0.5555555555555555,0.7583333333333334,0.1428571428571428,0.6000000000000001,0.6683673469387755,0.6141522029372496,0.3714591127739176,0.5,0.0,0.2222222222222222,1.0,1.0,0.0,1
0.0774883099532398,1.0,0.72,0.0,0.0,0.0,0.4838709677419355,0.4444444444444445,0.9916666666666666,0.8571428571428572,1.0,0.3918367346938776,0.2496662216288384,0.5229823623730625,0.9285714285714284,0.7222222222222222,0.2777777777777777,0.0,0.0,0.0,1
0.2605210420841684,0.0,0.56,1.0,0.0588235294117647,1.0,0.2580645161290322,0.0,0.6083333333333333,0.7142857142857142,0.15,0.0204081632653061,0.6241655540720961,0.2797969000534473,0.8571428571428571,0.8888888888888888,0.1111111111111111,1.0,1.0,1.0,0
0.3907815631262525,1.0,0.48,1.0,0.0,1.0,0.6612903225806451,0.1111111111111111,0.2583333333333333,0.7142857142857142,0.05,0.0285714285714285,0.4339118825100133,0.8094601817210048,0.4285714285714286,0.2777777777777778,0.8333333333333333,1.0,1.0,0.0,2
1.0,1.0,0.2799999999999999,0.0,0.4705882352941176,0.0,0.467741935483871,0.5555555555555555,0.9666666666666668,1.0,0.95,0.0255102040816326,0.5714285714285714,0.5491715660074826,0.8571428571428571,0.5,0.8888888888888888,1.0,1.0,0.0,2
0.631930527722111,1.0,0.8,1.0,0.1176470588235294,0.0,0.1129032258064516,0.1111111111111111,0.6250000000000001,1.0,0.8,0.3760204081632653,0.6375166889185581,0.0833778727952966,0.5,0.611111111111111,0.3333333333333333,0.0,0.0,0.0,0
0.0080160320641282,1.0,0.0,0.0,0.3529411764705882,1.0,0.6774193548387097,0.0,0.8833333333333334,0.4285714285714285,0.6000000000000001,0.3158163265306122,0.2449933244325767,0.2904863709246392,0.0,0.0555555555555555,0.3888888888888889,1.0,1.0,0.0,0
0.9899799599198398,1.0,0.0,1.0,0.1764705882352941,0.0,0.6612903225806451,1.0,0.0583333333333333,0.7142857142857142,0.5,0.1780612244897959,0.1174899866488651,0.6731694281133084,0.2857142857142857,0.2222222222222222,0.0555555555555555,0.0,1.0,1.0,2
0.0400801603206413,1.0,0.92,1.0,0.1176470588235294,1.0,0.6129032258064516,0.0,0.1583333333333333,0.8571428571428572,0.3,0.2173469387755102,0.2436582109479305,0.7263495456974879,0.7142857142857143,0.6666666666666666,0.9444444444444444,1.0,0.0,1.0,2
0.7989311957247829,0.0,0.0,0.0,0.0,1.0,0.935483870967742,0.0,0.0833333333333333,0.4285714285714285,0.0,0.0448979591836734,0.3644859813084111,0.0494388027792624,0.7142857142857143,0.0555555555555555,0.4999999999999999,1.0,1.0,0.0,0
0.8109552438209753,0.0,0.56,0.0,0.2352941176470588,1.0,0.0161290322580645,0.0,0.7583333333333334,0.5714285714285714,0.3,0.0403061224489795,0.7690253671562082,0.0689470871191876,0.1428571428571429,0.2222222222222222,0.6111111111111112,1.0,0.0,0.0,0
0.1803607214428858,1.0,0.0,0.0,0.1764705882352941,0.0,0.3709677419354839,1.0,0.05,0.4285714285714285,0.3,0.1668367346938775,0.281708945260347,0.1373597006948156,0.5,0.0555555555555555,1.0,0.0,1.0,0.0,0
0.2050768203072812,1.0,0.0,1.0,0.1764705882352941,0.0,0.7096774193548387,0.4444444444444445,0.2083333333333333,1.0,0.75,0.0607142857142857,0.0193591455273698,0.2207375734901122,0.7142857142857143,0.2777777777777778,0.4444444444444445,1.0,0.0,1.0,0
0.6526386105544423,1.0,0.12,1.0,0.7058823529411764,0.0,0.7419354838709677,0.6666666666666666,0.1583333333333333,0.5714285714285714,0.8500000000000001,0.3540816326530612,0.2550066755674232,0.2365045430251202,0.0,0.1111111111111111,0.2222222222222222,0.0,0.0,1.0,1
0.1930527722110888,0.0,0.6000000000000001,1.0,0.9411764705882352,1.0,0.1451612903225806,0.2222222222222222,0.0583333333333333,0.7142857142857142,0.8500000000000001,0.1770408163265306,0.1535380507343123,0.7784607161945483,0.0714285714285714,0.0555555555555555,0.0,1.0,0.0,1.0,2
0.0253841015364061,0.0,0.6000000000000001,1.0,0.0588235294117647,0.0,0.3548387096774194,0.4444444444444445,0.05,0.4285714285714285,0.1,0.4887755102040816,0.3117489986648865,0.2859433458043826,0.1428571428571429,0.2222222222222222,0.0555555555555555,1.0,1.0,0.0,0
0.6626586506346026,0.0,0.4000000000000001,1.0,0.7647058823529411,0.0,0.8225806451612904,0.4444444444444445,0.1833333333333333,0.5714285714285714,0.8,0.1224489795918367,0.6101468624833111,0.4882415820416889,1.0,0.8333333333333333,1.0,0.0,1.0,1.0,2
0.2692050768203073,0.0,0.4400000000000001,1.0,0.2941176470588235,1.0,0.1935483870967742,0.1111111111111111,0.1833333333333333,1.0,0.45,0.0285714285714285,0.1735647530040053,0.424906467129877,0.1428571428571429,0.0,0.0555555555555555,1.0,0.0,1.0,1
0.0981963927855711,0.0,0.56,1.0,0.2352941176470588,0.0,0.0967741935483871,1.0,0.0916666666666666,0.5714285714285714,0.95,0.4178571428571428,0.9993324432576768,0.7308925708177445,0.2142857142857143,0.3888888888888888,0.1111111111111111,0.0,0.0,1.0,2
0.4054776219104877,1.0,0.32,1.0,0.8235294117647058,1.0,0.0,0.2222222222222222,0.7416666666666666,0.8571428571428572,1.0,0.1061224489795918,0.829105473965287,0.2600213789417424,0.0,0.1666666666666666,0.1111111111111111,1.0,1.0,0.0,0
0.0053440213760855,1.0,0.0399999999999999,1.0,0.1176470588235294,1.0,0.1129032258064516,0.0,0.1083333333333333,0.5714285714285714,0.75,0.5801020408163265,0.4833110814419226,0.0686798503474078,1.0,0.5555555555555556,0.5555555555555556,1.0,0.0,0.0,0
0.0607882431529726,0.0,0.12,1.0,0.0588235294117647,0.0,0.8064516129032258,0.8888888888888888,0.1916666666666666,0.8571428571428572,0.5,0.1693877551020408,0.3137516688918558,0.3343132014965259,0.0,0.0,0.1111111111111111,0.0,0.0,1.0,0
0.0574482297929191,1.0,0.8,0.0,0.9411764705882352,1.0,0.7903225806451613,0.5555555555555555,0.2583333333333333,0.0,0.8500000000000001,0.1244897959183673,0.5747663551401869,0.6654195617316943,0.3571428571428571,0.2222222222222222,0.2777777777777777,1.0,0.0,1.0,2
0.8857715430861723,0.0,0.48,0.0,0.2352941176470588,1.0,0.5967741935483871,0.4444444444444445,0.4,0.5714285714285714,0.8,0.0280612244897959,0.3471295060080106,0.6916087653661143,0.6428571428571429,0.5,0.4444444444444445,1.0,1.0,0.0,2
0.6205744822979292,1.0,0.16,0.0,0.1764705882352941,0.0,0.8709677419354839,0.0,0.8250000000000001,0.2857142857142857,0.25,0.2903061224489796,0.2710280373831776,0.1325494388027792,0.8571428571428571,0.4444444444444444,0.8333333333333333,0.0,0.0,1.0,0
0.134936539746159,1.0,0.8800000000000001,0.0,0.7058823529411764,1.0,0.4516129032258065,0.2222222222222222,0.275,0.0,1.0,0.1112244897959183,0.37716955941255,0.324959914484233,0.6428571428571429,0.3888888888888888,0.2777777777777777,1.0,0.0,0.0,0
0.0247160988643954,0.0,0.24,1.0,0.0,1.0,0.3709677419354839,0.2222222222222222,0.6916666666666668,0.8571428571428572,0.35,0.2321428571428571,0.0246995994659545,0.5235168359166221,0.2857142857142857,0.1666666666666666,0.8333333333333333,1.0,1.0,1.0,1
0.8724114896459587,0.0,0.12,1.0,0.0,1.0,0.5806451612903226,0.1111111111111111,0.1416666666666667,1.0,0.0,0.6795918367346939,0.8771695594125499,0.2172634954569748,0.1428571428571429,0.3333333333333333,0.2777777777777777,1.0,0.0,0.0,1
0.6245824983299934,0.0,0.8,1.0,0.0,1.0,0.6451612903225806,0.8888888888888888,0.3666666666666666,1.0,0.05,0.9316326530612246,0.8918558077436582,0.6627471940138963,0.5,0.2777777777777778,0.9444444444444444,1.0,1.0,0.0,3
0.6559786239144957,1.0,0.8400000000000001,1.0,0.7647058823529411,0.0,0.2741935483870967,0.5555555555555555,0.5499999999999999,0.8571428571428572,0.95,0.1841836734693877,0.7022696929238985,0.3556921432389096,0.2857142857142857,0.2222222222222222,0.9444444444444444,0.0,0.0,0.0,1
0.9986639946559788,1.0,0.92,1.0,0.0,1.0,0.0806451612903225,0.0,0.4833333333333333,0.5714285714285714,0.2,0.478061224489796,0.3891855807743658,0.2677712453233565,0.8571428571428571,0.7777777777777777,0.7777777777777777,1.0,0.0,0.0,1
0.2004008016032065,1.0,0.6800000000000002,1.0,0.1176470588235294,0.0,0.9838709677419356,0.3333333333333333,0.7083333333333334,0.8571428571428572,0.2,0.3316326530612245,0.2530040053404538,0.3637092463923035,0.8571428571428571,0.2222222222222222,0.9444444444444444,0.0,0.0,1.0,1
0.4241816967267869,0.0,0.0,0.0,0.0,1.0,0.1129032258064516,0.8888888888888888,0.5833333333333334,0.7142857142857142,0.1,0.6668367346938776,0.8457943925233644,0.4954569748797434,0.2857142857142857,0.2777777777777778,0.7777777777777777,1.0,0.0,1.0,2
0.6285905143620575,0.0,0.6800000000000002,0.0,0.0,1.0,0.8709677419354839,0.6666666666666666,0.5416666666666666,0.5714285714285714,0.15,0.8295918367346939,0.7797062750333779,0.3359166221272047,0.4285714285714286,0.4444444444444444,0.2777777777777777,1.0,1.0,0.0,2
0.5337341349365398,1.0,0.0,0.0,0.2941176470588235,0.0,0.967741935483871,0.0,0.6333333333333334,0.7142857142857142,0.35,0.111734693877551,0.3584779706275033,0.1651523249599144,0.7142857142857143,0.1666666666666666,0.4444444444444445,1.0,1.0,0.0,0
0.3560454241816968,1.0,0.8800000000000001,1.0,0.3529411764705882,0.0,0.5645161290322581,0.6666666666666666,0.3333333333333333,0.8571428571428572,1.0,0.3607142857142857,0.466622162883845,0.9003206841261356,0.8571428571428571,0.0555555555555555,0.5555555555555556,0.0,1.0,1.0,3
0.2765531062124249,1.0,0.0,1.0,0.5294117647058824,1.0,0.5,0.2222222222222222,0.9916666666666666,0.1428571428571428,0.8,0.2566326530612245,0.3244325767690253,0.507749866381614,0.1428571428571429,0.1666666666666666,0.6111111111111112,1.0,1.0,0.0,1
0.0721442885771543,1.0,1.0000000000000002,0.0,0.8823529411764706,1.0,0.6774193548387097,0.2222222222222222,0.3083333333333333,0.0,0.8,0.0295918367346938,0.5026702269692923,0.6213254943880278,0.7142857142857143,0.611111111111111,0.7222222222222221,1.0,0.0,1.0,1
0.7935871743486975,1.0,0.0,0.0,0.6470588235294118,0.0,0.1129032258064516,0.4444444444444445,0.5833333333333334,0.5714285714285714,0.75,0.238265306122449,0.116822429906542,0.6362907536076964,0.2142857142857143,0.2222222222222222,0.0555555555555555,1.0,0.0,0.0,2
0.6085504342017369,0.0,0.0399999999999999,0.0,0.5294117647058824,0.0,0.8870967741935484,0.1111111111111111,0.05,0.2857142857142857,0.5,0.0010204081632653,0.1068090787716956,0.4267771245323356,0.7142857142857143,0.5555555555555556,0.8888888888888888,0.0,0.0,1.0,1
0.6045424181696728,0.0,0.0,1.0,0.1176470588235294,1.0,0.5161290322580645,0.7777777777777778,0.15,0.2857142857142857,0.25,0.5188775510204082,0.5781041388518023,0.9778193479422768,0.2857142857142857,0.4444444444444444,0.0,1.0,0.0,1.0,3
0.0814963259853039,1.0,0.12,0.0,0.3529411764705882,1.0,0.3870967741935484,0.2222222222222222,0.975,0.8571428571428572,0.6000000000000001,0.2469387755102041,0.4926568758344459,0.4043292357028327,0.3571428571428571,0.0555555555555555,0.7777777777777777,1.0,0.0,0.0,1
0.220440881763527,0.0,0.76,0.0,0.5882352941176471,0.0,0.8548387096774194,0.4444444444444445,0.05,0.7142857142857142,0.6000000000000001,0.0877551020408163,0.4933244325767689,0.2188669160876536,0.5,0.611111111111111,0.0555555555555555,1.0,1.0,0.0,0
0.8002672010688043,1.0,0.0,0.0,0.9411764705882352,0.0,0.3064516129032257,0.0,0.6333333333333334,0.4285714285714285,1.0,0.0535714285714285,0.3998664886515354,0.2471940138963121,0.7857142857142857,0.0,0.8888888888888888,1.0,1.0,0.0,1
0.8684034736138946,0.0,0.0,1.0,0.3529411764705882,0.0,0.8064516129032258,0.8888888888888888,0.3333333333333333,0.7142857142857142,0.5,0.0510204081632653,0.8064085447263016,0.0005344735435595,0.6428571428571429,0.4444444444444444,0.3888888888888889,1.0,0.0,0.0,0
0.2825651302605211,0.0,0.0,1.0,0.0,1.0,0.7258064516129032,0.2222222222222222,0.725,1.0,0.3,0.0551020408163265,0.8765020026702268,0.3645109567076429,0.8571428571428571,0.8333333333333333,0.5555555555555556,1.0,0.0,0.0,1
0.7929191716766868,0.0,0.8,0.0,0.0,1.0,0.3064516129032257,0.1111111111111111,0.7500000000000001,0.8571428571428572,0.0,0.3316326530612245,0.2429906542056075,0.9962586851950828,0.8571428571428571,0.7777777777777777,0.3333333333333333,1.0,1.0,1.0,3
0.6092184368737475,0.0,0.0399999999999999,0.0,0.0,1.0,0.1774193548387096,0.0,0.4,0.0,0.0,0.675,0.6548731642189586,0.0692143238909673,0.0,0.0,0.8888888888888888,1.0,1.0,0.0,0
0.4609218436873747,0.0,0.32,1.0,0.9411764705882352,1.0,0.3870967741935484,0.7777777777777778,0.0333333333333333,0.0,1.0,0.3474489795918368,0.1221628838451268,0.3602351683591662,0.6428571428571429,0.1666666666666666,0.3888888888888889,1.0,0.0,1.0,1
0.1108884435537742,1.0,0.0399999999999999,0.0,0.3529411764705882,1.0,0.0161290322580645,0.6666666666666666,0.8750000000000001,0.7142857142857142,0.65,0.0066326530612244,0.6428571428571428,0.6945483698556921,0.0,0.0,0.9444444444444444,1.0,0.0,1.0,2
0.6165664662658651,0.0,0.0,1.0,0.9411764705882352,1.0,0.3387096774193548,0.5555555555555555,0.0,0.4285714285714285,0.9,0.7137755102040817,0.7763684913217623,0.2129877071084981,0.6428571428571429,0.611111111111111,0.7777777777777777,1.0,1.0,1.0,1
0.953239812959252,0.0,0.8400000000000001,0.0,0.2941176470588235,0.0,0.0483870967741935,0.7777777777777778,0.6833333333333335,0.5714285714285714,0.8,0.1168367346938775,0.336448598130841,0.1175841795831106,0.6428571428571429,0.6666666666666666,0.7222222222222221,1.0,1.0,1.0,0
0.7995991983967936,0.0,0.6400000000000001,0.0,0.2941176470588235,1.0,0.2580645161290322,0.8888888888888888,0.6666666666666666,0.7142857142857142,1.0,0.1852040816326531,0.3297730307076101,0.1443078567610903,0.5714285714285714,0.1666666666666666,0.6666666666666665,1.0,0.0,1.0,0
0.4215096860387441,0.0,0.2,0.0,0.0,0.0,0.0967741935483871,0.0,0.6416666666666667,0.0,0.2,0.5566326530612246,0.5293724966622163,0.4526990913949759,0.4285714285714286,0.1111111111111111,0.2222222222222222,0.0,1.0,1.0,1
0.1810287241148964,0.0,0.8400000000000001,1.0,0.4117647058823529,0.0,0.064516129032258,0.0,0.1666666666666667,0.1428571428571428,0.5,0.3780612244897959,0.6481975967957276,0.1798503474078033,0.5714285714285714,0.3333333333333333,0.8888888888888888,0.0,1.0,1.0,0
0.6332665330661323,0.0,0.12,1.0,0.1764705882352941,1.0,0.1290322580645161,0.1111111111111111,0.5333333333333333,0.0,0.6000000000000001,0.7744897959183674,0.9232309746328438,0.2073757349011223,0.3571428571428571,0.0,0.3333333333333333,1.0,1.0,1.0,1
0.2658650634602538,1.0,0.8800000000000001,0.0,0.1764705882352941,1.0,0.8225806451612904,0.2222222222222222,0.9333333333333336,0.4285714285714285,0.55,0.3270408163265306,0.7596795727636849,0.698556921432389,1.0,0.8888888888888888,0.4444444444444445,1.0,0.0,1.0,2
0.3513694054776219,1.0,0.12,0.0,0.4117647058823529,0.0,0.2580645161290322,1.0,0.5499999999999999,0.8571428571428572,0.55,0.1724489795918367,0.0226969292389853,0.2613575628006414,0.1428571428571429,0.2222222222222222,0.6666666666666665,1.0,0.0,1.0,0
0.8156312625250501,1.0,0.2,0.0,0.4117647058823529,0.0,0.3709677419354839,0.7777777777777778,0.0666666666666666,0.7142857142857142,0.95,0.601530612244898,0.7596795727636849,0.5665419561731694,0.0,0.0555555555555555,0.9444444444444444,0.0,0.0,1.0,3
0.7194388777555112,0.0,0.96,0.0,0.4705882352941176,0.0,0.0161290322580645,0.8888888888888888,1.0,0.0,1.0,0.1744897959183673,0.1134846461949265,0.8623730625334045,0.8571428571428571,0.2222222222222222,0.7777777777777777,1.0,0.0,0.0,3
0.8430193720774883,0.0,0.96,1.0,0.0588235294117647,1.0,0.8225806451612904,0.1111111111111111,0.175,0.4285714285714285,1.0,0.0704081632653061,0.2042723631508678,0.4836985569214324,0.5,0.5,0.8333333333333333,1.0,1.0,1.0,1
0.6366065464261857,1.0,0.4400000000000001,0.0,0.3529411764705882,1.0,0.3064516129032257,0.1111111111111111,0.6666666666666666,0.4285714285714285,0.5,0.0948979591836734,0.4005340453938585,0.1237306253340459,0.6428571428571429,0.5555555555555556,0.4444444444444445,1.0,1.0,1.0,0
0.1756847027388109,1.0,0.2799999999999999,1.0,0.0588235294117647,0.0,0.1774193548387096,1.0,0.6,1.0,0.1,0.1841836734693877,0.007343124165554,0.7728487439871725,0.9285714285714284,0.3888888888888888,0.2222222222222222,1.0,1.0,0.0,2
0.7969271877087509,1.0,0.0399999999999999,0.0,0.0,1.0,0.5161290322580645,0.2222222222222222,0.1833333333333333,0.8571428571428572,0.35,0.1923469387755102,0.0327102803738317,0.5456974879743453,0.8571428571428571,0.2777777777777778,0.0,1.0,1.0,0.0,2
0.6118904475617903,1.0,0.8800000000000001,0.0,0.1176470588235294,1.0,0.8709677419354839,0.8888888888888888,0.2833333333333333,0.7142857142857142,0.2,0.2520408163265306,0.7670226969292389,0.0892570817744521,0.4285714285714286,0.1666666666666666,0.2222222222222222,1.0,0.0,1.0,0
0.8971275885103542,1.0,0.72,1.0,0.0588235294117647,0.0,0.7903225806451613,0.6666666666666666,0.65,1.0,0.15,0.2719387755102041,0.2550066755674232,0.3923035809727418,0.0,0.0555555555555555,0.6666666666666665,0.0,1.0,1.0,1
0.5404141616566467,0.0,0.3599999999999999,0.0,0.0,0.0,0.5,0.3333333333333333,0.2083333333333333,0.0,0.7000000000000001,0.4112244897959184,0.3444592790387183,0.2792624265098877,0.5714285714285714,0.6666666666666666,0.9444444444444444,0.0,0.0,1.0,1
0.923179692718771,1.0,0.8800000000000001,1.0,0.3529411764705882,1.0,0.4516129032258065,0.4444444444444445,0.125,0.1428571428571428,0.5,0.2709183673469388,0.1942590120160213,0.9267771245323356,0.7857142857142857,0.8333333333333333,1.0,1.0,1.0,1.0,3
0.3774215096860388,0.0,1.0000000000000002,1.0,0.3529411764705882,1.0,0.0483870967741935,0.4444444444444445,0.725,0.5714285714285714,0.35,0.0270408163265306,0.6702269692923899,0.2105825761624799,0.2142857142857143,0.3888888888888888,0.4999999999999999,1.0,0.0,0.0,0
0.4422177688710755,1.0,0.6400000000000001,1.0,0.0,1.0,0.2741935483870967,0.8888888888888888,0.4333333333333334,0.1428571428571428,0.05,0.3714285714285714,0.2122830440587449,0.7172634954569748,0.5714285714285714,0.0,0.7222222222222221,1.0,0.0,1.0,2
0.9585838343353374,0.0,0.32,0.0,0.1176470588235294,0.0,0.6774193548387097,0.0,0.4916666666666666,0.2857142857142857,0.15,0.2908163265306123,0.3477970627503337,0.3057188669160876,0.8571428571428571,0.3888888888888888,0.0555555555555555,0.0,0.0,1.0,1
0.4342017368069473,1.0,0.96,1.0,0.0,0.0,0.467741935483871,0.5555555555555555,0.4,1.0,0.05,0.5214285714285715,0.7076101468624834,0.5668091929449491,0.9285714285714284,0.4444444444444444,0.6111111111111112,0.0,1.0,0.0,2
0.4188376753507015,1.0,0.0,1.0,0.3529411764705882,0.0,0.5,0.5555555555555555,0.5583333333333335,1.0,0.35,0.4785714285714286,0.4846461949265687,0.3164083377872795,0.8571428571428571,0.8333333333333333,0.9444444444444444,1.0,0.0,0.0,1
0.4542418169672679,0.0,0.72,0.0,0.7058823529411764,1.0,0.9516129032258064,0.5555555555555555,0.3,0.1428571428571428,0.8,0.1964285714285714,0.2209612817089452,0.4714056654195617,0.0714285714285714,0.0,0.8888888888888888,1.0,1.0,0.0,1
0.5885103540414163,1.0,0.0,0.0,0.4117647058823529,1.0,0.1774193548387096,0.2222222222222222,0.9916666666666666,0.1428571428571428,0.9,0.3122448979591837,0.1461949265687583,0.4855692143238909,0.7857142857142857,0.3888888888888888,0.3888888888888889,1.0,0.0,1.0,1
0.7708750835003342,1.0,0.0,1.0,0.3529411764705882,1.0,0.032258064516129,0.0,0.2083333333333333,0.2857142857142857,0.6000000000000001,0.3193877551020408,0.5660881174899867,0.1114377338321753,0.3571428571428571,0.1666666666666666,0.5555555555555556,1.0,0.0,0.0,0
0.2211088844355377,0.0,0.24,0.0,0.0,1.0,0.7096774193548387,0.2222222222222222,0.1083333333333333,0.7142857142857142,0.0,0.4183673469387755,0.5781041388518023,0.8180117584179583,0.2142857142857143,0.0,0.9444444444444444,1.0,1.0,0.0,3
0.2150968603874415,1.0,0.8800000000000001,1.0,0.7647058823529411,0.0,0.935483870967742,0.4444444444444445,0.5666666666666668,1.0,0.95,0.4193877551020408,0.6335113484646194,0.1734366648850882,0.6428571428571429,0.611111111111111,0.8333333333333333,1.0,1.0,1.0,0
0.0313961255845023,0.0,0.2,1.0,0.0,1.0,0.8709677419354839,0.3333333333333333,0.5499999999999999,0.4285714285714285,0.7000000000000001,0.3352040816326531,0.7723631508678237,0.0817744521646178,0.8571428571428571,0.7777777777777777,0.3333333333333333,1.0,1.0,1.0,0
0.5798263193052773,1.0,0.48,1.0,0.1764705882352941,0.0,0.4193548387096774,0.5555555555555555,0.2333333333333334,0.0,0.9,0.7403061224489796,0.6468624833110814,0.7883484767504008,0.7857142857142857,0.8333333333333333,0.1111111111111111,0.0,0.0,0.0,3
0.918503674014696,0.0,0.32,1.0,0.5294117647058824,1.0,1.0,1.0,0.15,0.2857142857142857,0.95,0.3061224489795918,0.4746328437917222,0.7685729556386958,0.8571428571428571,0.0,0.0,1.0,1.0,1.0,3
0.3513694054776219,0.0,0.0,0.0,0.1176470588235294,1.0,1.0,0.8888888888888888,0.1916666666666666,0.1428571428571428,0.35,0.866326530612245,0.8324432576769025,0.943345804382683,0.8571428571428571,0.6666666666666666,0.5555555555555556,1.0,0.0,0.0,3
0.7414829659318638,1.0,0.0,1.0,0.6470588235294118,0.0,0.0161290322580645,0.5555555555555555,0.15,0.2857142857142857,0.7000000000000001,0.1545918367346939,0.1428571428571428,0.357830037413148,0.2142857142857143,0.2222222222222222,0.3888888888888889,1.0,0.0,1.0,1
0.6680026720106882,0.0,0.24,0.0,0.7058823529411764,1.0,0.0,0.1111111111111111,0.8916666666666667,0.0,0.75,0.1010204081632653,0.3711615487316422,0.5962052378407269,0.5714285714285714,0.6666666666666666,0.7777777777777777,1.0,1.0,1.0,2
0.3346693386773547,0.0,0.12,1.0,0.0,1.0,0.532258064516129,0.4444444444444445,0.025,0.1428571428571428,0.2,0.6862244897959184,0.6114819759679573,0.3928380545163014,0.7857142857142857,0.2777777777777778,0.9444444444444444,1.0,0.0,1.0,1
0.1449565798263193,0.0,0.0799999999999999,1.0,0.0,1.0,0.3064516129032257,0.7777777777777778,0.0666666666666666,0.0,0.35,0.2642857142857143,0.2202937249666221,0.4003206841261357,0.8571428571428571,0.611111111111111,0.3888888888888889,1.0,0.0,1.0,1
0.0888443553774215,1.0,0.12,0.0,0.2941176470588235,0.0,0.6290322580645161,0.1111111111111111,0.9333333333333336,0.0,0.6000000000000001,0.6948979591836736,0.9032042723631508,0.7979690005344735,0.9285714285714284,0.611111111111111,0.1111111111111111,1.0,0.0,1.0,3
0.7995991983967936,0.0,0.8,0.0,0.5882352941176471,1.0,0.3870967741935484,0.3333333333333333,0.2083333333333333,0.1428571428571428,0.9,0.2474489795918367,0.8805073431241655,0.3741314804917156,0.0,0.1666666666666666,0.8333333333333333,1.0,0.0,1.0,2
0.3326653306613226,0.0,0.96,1.0,0.6470588235294118,1.0,1.0,0.1111111111111111,0.9916666666666666,0.4285714285714285,0.95,0.7127551020408164,0.7449933244325768,0.6245323356493853,0.6428571428571429,0.611111111111111,0.7777777777777777,1.0,1.0,0.0,2
0.5010020040080161,0.0,0.0,1.0,0.5882352941176471,1.0,0.4354838709677419,0.6666666666666666,0.4416666666666667,0.7142857142857142,0.8,0.1571428571428571,0.0607476635514018,0.2127204703367183,0.4285714285714286,0.5,0.4999999999999999,1.0,0.0,0.0,0
0.7528390113560455,1.0,0.52,1.0,0.6470588235294118,0.0,0.8709677419354839,0.0,0.4666666666666667,0.1428571428571428,0.65,0.2551020408163265,0.8097463284379172,0.8289684660609299,0.8571428571428571,0.611111111111111,0.5555555555555556,1.0,1.0,1.0,3
0.2438209752839012,0.0,0.0,1.0,0.2941176470588235,1.0,0.7096774193548387,0.4444444444444445,0.8250000000000001,1.0,0.35,0.3530612244897959,0.7917222963951935,0.953768038482095,0.5,0.611111111111111,0.0,1.0,1.0,1.0,3
0.3326653306613226,1.0,0.52,1.0,0.0,1.0,0.4032258064516129,0.0,0.725,0.4285714285714285,0.05,0.010204081632653,0.1635514018691588,0.290753607696419,0.8571428571428571,0.5555555555555556,0.1666666666666666,1.0,0.0,0.0,0
0.1529726118904475,1.0,0.32,1.0,0.3529411764705882,0.0,0.064516129032258,0.8888888888888888,0.725,0.8571428571428572,0.5,0.5591836734693878,0.4372496662216288,0.6830571886691608,0.3571428571428571,0.0555555555555555,0.8333333333333333,0.0,0.0,0.0,2
0.2645290581162325,0.0,0.3599999999999999,1.0,0.0588235294117647,0.0,0.2419354838709677,0.3333333333333333,0.7583333333333334,0.0,0.1,0.2790816326530612,0.9025367156208276,0.7194013896312133,0.5,0.1666666666666666,0.1666666666666666,0.0,0.0,1.0,2
0.1810287241148964,1.0,0.2799999999999999,1.0,0.4117647058823529,1.0,0.0967741935483871,0.5555555555555555,0.45,0.8571428571428572,0.4,0.2816326530612245,0.8691588785046729,0.0443613041154462,0.1428571428571429,0.3333333333333333,0.7222222222222221,1.0,0.0,0.0,0
0.9498997995991983,0.0,0.32,0.0,0.1764705882352941,0.0,0.3548387096774194,1.0,0.05,0.4285714285714285,0.2,0.4459183673469388,0.5100133511348465,0.5940673436664885,0.2857142857142857,0.1111111111111111,0.7222222222222221,1.0,1.0,0.0,2
0.8443553774215098,0.0,0.24,0.0,0.1764705882352941,0.0,0.1451612903225806,0.6666666666666666,0.0583333333333333,0.1428571428571428,0.35,0.4260204081632653,0.4506008010680907,0.9190272581507216,0.0714285714285714,0.2777777777777778,0.8888888888888888,1.0,0.0,0.0,3
0.8937875751503006,1.0,0.2799999999999999,0.0,0.5294117647058824,1.0,0.8387096774193549,0.4444444444444445,1.0,0.8571428571428572,0.55,0.2423469387755102,0.6628838451268357,0.1793158738642437,1.0,0.5555555555555556,0.8888888888888888,1.0,0.0,1.0,1
0.4522378089512359,0.0,0.6800000000000002,1.0,0.3529411764705882,0.0,0.8870967741935484,0.2222222222222222,0.0333333333333333,0.2857142857142857,0.8500000000000001,0.0489795918367347,0.568758344459279,0.5975414216996258,0.7857142857142857,0.7777777777777777,0.4444444444444445,1.0,1.0,0.0,2
0.1950567802271209,1.0,0.92,1.0,0.0588235294117647,1.0,1.0,0.3333333333333333,0.8250000000000001,0.4285714285714285,0.1,0.4173469387755102,0.3377837116154872,0.5451630144307856,0.5,0.0,0.1666666666666666,1.0,1.0,0.0,1
0.5651302605210422,0.0,0.16,1.0,0.4705882352941176,1.0,0.8225806451612904,0.7777777777777778,0.2333333333333334,0.7142857142857142,0.75,0.4903061224489796,0.3391188251001334,0.9567076429716728,0.7142857142857143,0.1666666666666666,0.6666666666666665,1.0,0.0,1.0,3
0.5537742150968604,1.0,0.32,1.0,0.8235294117647058,0.0,0.0161290322580645,0.2222222222222222,0.025,0.5714285714285714,0.8500000000000001,0.5,0.5086782376502003,0.0553180117584179,0.6428571428571429,0.3333333333333333,0.4999999999999999,0.0,0.0,1.0,0
0.1830327321309285,1.0,0.8,1.0,0.0588235294117647,1.0,0.1290322580645161,0.0,0.8750000000000001,0.8571428571428572,0.7000000000000001,0.2265306122448979,0.7042723631508678,0.3909673971138428,1.0,0.1666666666666666,0.8888888888888888,1.0,1.0,1.0,1
0.2491649966599867,0.0,0.32,0.0,0.2941176470588235,0.0,0.0967741935483871,0.4444444444444445,0.8750000000000001,0.0,1.0,0.2255102040816326,0.4993324432576769,0.0871191876002137,0.0714285714285714,0.2222222222222222,0.7222222222222221,0.0,0.0,0.0,0
0.5791583166332666,0.0,1.0000000000000002,1.0,0.5882352941176471,0.0,0.7741935483870968,0.1111111111111111,0.1416666666666667,0.8571428571428572,0.9,0.3561224489795919,0.219626168224299,0.598610368786745,0.5714285714285714,0.3333333333333333,0.1666666666666666,0.0,1.0,1.0,2
0.0627922511690047,0.0,0.8400000000000001,0.0,0.0,1.0,0.2903225806451612,0.3333333333333333,0.35,0.1428571428571428,0.9,0.3178571428571429,0.2109479305740987,0.3572955638695884,1.0,0.611111111111111,0.0,1.0,0.0,1.0,0
0.1082164328657315,0.0,0.12,1.0,0.0,0.0,0.3709677419354839,0.5555555555555555,0.8583333333333333,0.1428571428571428,0.05,0.0418367346938775,0.7376502002670227,0.7803313735970069,0.0714285714285714,0.1111111111111111,0.0,1.0,0.0,1.0,2
0.5003340013360054,1.0,0.3599999999999999,0.0,0.4705882352941176,0.0,0.6774193548387097,0.1111111111111111,0.85,0.8571428571428572,1.0,0.3586734693877551,0.3411214953271028,0.4345269909139497,0.6428571428571429,0.0555555555555555,0.6666666666666665,0.0,0.0,0.0,1
0.1342685370741483,0.0,0.8400000000000001,1.0,0.1176470588235294,1.0,0.1129032258064516,0.6666666666666666,0.5083333333333334,0.2857142857142857,0.15,0.2571428571428572,0.7142857142857142,0.7212720470336718,0.3571428571428571,0.2222222222222222,0.9444444444444444,1.0,0.0,0.0,2
0.1302605210420842,0.0,0.0,0.0,0.3529411764705882,0.0,0.7903225806451613,0.2222222222222222,0.975,0.2857142857142857,0.4,0.3311224489795918,0.2716955941255006,0.6344200962052378,0.9285714285714284,0.4444444444444444,0.3888888888888889,0.0,0.0,1.0,1
0.7294589178356714,1.0,0.2,0.0,0.0,1.0,0.8064516129032258,0.6666666666666666,0.4166666666666666,1.0,0.0,0.388265306122449,0.5580774365821094,0.293425975414217,0.7142857142857143,0.7222222222222222,0.6111111111111112,1.0,1.0,1.0,1
0.2097528390113561,0.0,0.6000000000000001,1.0,0.2352941176470588,0.0,0.7903225806451613,0.2222222222222222,0.0416666666666667,0.7142857142857142,0.6000000000000001,0.5010204081632653,0.5280373831775701,0.8586317477284874,0.0,0.2222222222222222,0.2222222222222222,1.0,0.0,1.0,3
0.237808951235805,1.0,0.6000000000000001,1.0,0.1764705882352941,0.0,0.2419354838709677,0.1111111111111111,0.9583333333333334,0.8571428571428572,0.45,0.0801020408163265,0.2990654205607476,0.7600213789417423,0.8571428571428571,0.2777777777777778,0.6111111111111112,1.0,1.0,0.0,2
0.4589178356713427,1.0,0.4000000000000001,1.0,0.0,0.0,0.8387096774193549,0.2222222222222222,0.9833333333333332,0.7142857142857142,0.1,0.5867346938775511,0.6468624833110814,0.0611972207375735,0.5,0.3888888888888888,0.2777777777777777,0.0,1.0,0.0,0
0.4195056780227121,1.0,0.92,1.0,0.0,0.0,0.7580645161290323,0.4444444444444445,0.8750000000000001,0.1428571428571428,0.1,0.5459183673469388,0.3865153538050734,0.4278460716194548,0.2142857142857143,0.2222222222222222,0.1666666666666666,1.0,1.0,1.0,1
0.6847027388109552,0.0,0.6400000000000001,0.0,0.0588235294117647,1.0,0.3387096774193548,0.1111111111111111,0.3083333333333333,0.8571428571428572,0.4,0.3663265306122449,0.1675567423230974,0.5267236771779796,0.9285714285714284,0.5555555555555556,0.0555555555555555,1.0,1.0,0.0,2
0.7728790915163661,1.0,0.3599999999999999,0.0,0.0,1.0,0.5967741935483871,0.6666666666666666,0.85,0.0,0.25,0.2091836734693877,0.0146862483311081,0.8623730625334045,0.3571428571428571,0.0555555555555555,0.7222222222222221,1.0,0.0,1.0,3
0.7822311289245159,1.0,0.0,1.0,0.7647058823529411,1.0,0.4838709677419355,0.6666666666666666,0.7833333333333333,0.0,1.0,0.6535714285714286,0.931909212283044,0.2701763762693746,0.8571428571428571,0.2222222222222222,1.0,1.0,1.0,0.0,1
0.6225784903139613,0.0,0.4400000000000001,0.0,0.4117647058823529,0.0,0.032258064516129,0.6666666666666666,0.4416666666666667,1.0,0.55,0.1433673469387755,0.1995994659546061,0.0005344735435595,0.4285714285714286,0.5,0.1111111111111111,1.0,1.0,1.0,0
0.0040080160320641,1.0,0.0,1.0,0.0588235294117647,0.0,0.4838709677419355,0.4444444444444445,0.5083333333333334,0.8571428571428572,0.55,0.4775510204081633,0.5994659546061415,0.3864243719935862,0.8571428571428571,0.0,0.1666666666666666,1.0,1.0,1.0,1
0.7354709418837677,1.0,0.92,1.0,0.2352941176470588,1.0,0.5806451612903226,0.6666666666666666,0.2833333333333333,0.2857142857142857,1.0,0.2377551020408163,0.192256341789052,0.2087119187600213,0.2142857142857143,0.3888888888888888,1.0,1.0,0.0,0.0,0
0.6259185036740148,0.0,0.6800000000000002,0.0,0.0,1.0,0.4838709677419355,0.5555555555555555,0.7999999999999999,0.8571428571428572,0.3,0.348469387755102,0.7763684913217623,0.1638161411010155,1.0,0.7222222222222222,0.3888888888888889,1.0,1.0,1.0,0
0.1409485637942552,1.0,0.4400000000000001,0.0,0.3529411764705882,1.0,0.1129032258064516,0.7777777777777778,0.7666666666666667,0.1428571428571428,0.7000000000000001,0.4494897959183674,0.4899866488651535,0.8968466060929983,0.5714285714285714,0.2777777777777778,0.1111111111111111,1.0,0.0,0.0,3
0.220440881763527,0.0,0.48,1.0,0.4117647058823529,1.0,0.3870967741935484,0.6666666666666666,0.8083333333333335,0.5714285714285714,0.55,0.2607142857142857,0.0807743658210947,0.3869588455371459,0.0714285714285714,0.2777777777777778,1.0,1.0,1.0,1.0,0
0.4468937875751504,1.0,0.2799999999999999,0.0,0.2352941176470588,0.0,0.4516129032258065,0.3333333333333333,0.025,1.0,0.75,0.0137755102040816,0.8157543391188251,0.218332442544094,0.0714285714285714,0.2222222222222222,0.3333333333333333,1.0,1.0,0.0,0
0.0253841015364061,1.0,0.0399999999999999,1.0,0.5294117647058824,0.0,0.3064516129032257,0.0,0.5416666666666666,0.8571428571428572,0.7000000000000001,0.2811224489795919,0.0660881174899866,0.8928380545163014,0.6428571428571429,0.2777777777777778,0.3888888888888889,0.0,0.0,0.0,2
0.7762191048764195,1.0,0.8,1.0,0.7647058823529411,1.0,0.4032258064516129,0.2222222222222222,0.7416666666666666,0.4285714285714285,0.7000000000000001,0.4239795918367347,0.6268357810413885,0.4885088188134687,0.1428571428571429,0.0555555555555555,0.8888888888888888,1.0,0.0,0.0,2
0.1870407481629926,1.0,0.32,1.0,0.0588235294117647,0.0,1.0,0.1111111111111111,0.0666666666666666,0.1428571428571428,0.35,0.1877551020408163,0.0714285714285714,0.9636557990379476,0.8571428571428571,0.5555555555555556,0.3888888888888889,0.0,0.0,0.0,3
0.3299933199732799,0.0,0.32,1.0,0.0588235294117647,0.0,0.1290322580645161,0.0,0.2,0.4285714285714285,0.15,0.1316326530612245,0.9272363150867824,0.0943345804382683,0.4285714285714286,0.1666666666666666,0.1666666666666666,1.0,0.0,1.0,0
0.6546426185704743,1.0,0.0799999999999999,1.0,0.2352941176470588,1.0,0.5645161290322581,0.5555555555555555,0.1333333333333334,0.5714285714285714,0.65,0.0591836734693877,0.6895861148197597,0.7185996793158738,0.3571428571428571,0.2777777777777778,0.7777777777777777,1.0,1.0,1.0,2
0.1736806947227789,1.0,0.0,0.0,0.5294117647058824,0.0,0.0161290322580645,0.7777777777777778,0.9666666666666668,0.8571428571428572,0.75,0.6760204081632654,0.964619492656876,0.5323356493853554,1.0,0.1666666666666666,0.7222222222222221,1.0,1.0,1.0,2
0.3486973947895792,1.0,0.72,1.0,0.2941176470588235,1.0,0.4516129032258065,0.1111111111111111,0.0,1.0,0.35,0.0025510204081632,0.8304405874499332,0.4890432923570282,0.3571428571428571,0.0,0.9444444444444444,1.0,1.0,1.0,1
0.5177020708082833,1.0,0.96,1.0,0.1176470588235294,0.0,0.8225806451612904,0.2222222222222222,0.4166666666666666,0.1428571428571428,0.15,0.1107142857142857,0.1568758344459279,0.9465526456440404,1.0,0.5555555555555556,0.3333333333333333,1.0,1.0,1.0,3
0.9846359385437542,1.0,0.56,1.0,0.1176470588235294,0.0,0.467741935483871,0.8888888888888888,0.5916666666666667,0.0,0.8500000000000001,0.3954081632653061,0.7389853137516689,0.7391769107429181,0.5714285714285714,0.2777777777777778,0.9444444444444444,0.0,0.0,1.0,3
0.9118236472945892,0.0,0.0,0.0,0.7647058823529411,1.0,0.8064516129032258,0.6666666666666666,0.8750000000000001,0.0,0.8500000000000001,0.1816326530612245,0.0420560747663551,0.0312667022982362,0.6428571428571429,0.5,0.0555555555555555,1.0,0.0,1.0,0
0.6579826319305278,0.0,0.8400000000000001,0.0,0.4117647058823529,0.0,0.8064516129032258,0.0,0.0416666666666667,0.4285714285714285,0.75,0.729591836734694,0.8324432576769025,0.0109567076429716,0.5714285714285714,0.0555555555555555,0.7222222222222221,0.0,1.0,0.0,0
0.0661322645290581,0.0,0.0,0.0,0.0,0.0,0.1935483870967742,0.7777777777777778,0.2666666666666667,0.5714285714285714,0.1,0.163265306122449,0.164886515353805,0.3738642437199358,0.9285714285714284,0.0,0.3888888888888889,0.0,0.0,0.0,0
0.9131596526386104,0.0,0.6000000000000001,1.0,0.0,1.0,0.6451612903225806,0.1111111111111111,0.7416666666666666,0.0,0.2,0.1770408163265306,0.1068090787716956,0.768305718866916,0.2142857142857143,0.1666666666666666,0.2777777777777777,1.0,1.0,1.0,3
0.6573146292585171,0.0,0.92,0.0,0.1764705882352941,1.0,0.6774193548387097,0.0,0.4833333333333333,0.4285714285714285,0.7000000000000001,0.1739795918367347,0.1829105473965286,0.8057188669160876,0.6428571428571429,0.6666666666666666,0.3333333333333333,1.0,1.0,0.0,3
0.1215764863059452,0.0,0.0799999999999999,0.0,0.2941176470588235,0.0,0.2741935483870967,0.8888888888888888,0.775,0.4285714285714285,0.8500000000000001,0.4867346938775511,0.9913217623497996,0.6322822020309994,0.7857142857142857,0.1666666666666666,0.1666666666666666,0.0,0.0,1.0,2
0.0400801603206413,1.0,0.2,0.0,0.0,0.0,0.1451612903225806,0.0,0.6916666666666668,1.0,0.5,0.2510204081632653,0.4512683578104138,0.8458043826830571,0.7857142857142857,0.1111111111111111,0.1666666666666666,1.0,1.0,1.0,2
0.3714094856379426,1.0,0.8800000000000001,0.0,0.1764705882352941,1.0,0.6290322580645161,0.0,0.1416666666666667,0.4285714285714285,0.5,0.2025510204081632,0.2610146862483311,0.474879743452699,0.7857142857142857,0.5,0.0,1.0,1.0,0.0,1
0.2271209084836339,0.0,0.0,0.0,0.3529411764705882,1.0,0.1451612903225806,0.2222222222222222,0.0083333333333334,0.5714285714285714,0.7000000000000001,0.0637755102040816,0.116822429906542,0.1873329770176376,0.0714285714285714,0.2777777777777778,0.4999999999999999,1.0,1.0,0.0,0
0.477621910487642,0.0,1.0000000000000002,0.0,0.2352941176470588,0.0,0.7258064516129032,0.3333333333333333,0.9916666666666666,0.2857142857142857,0.35,0.9448979591836736,0.979305740987984,0.5376803848209513,0.5714285714285714,0.2777777777777778,0.1111111111111111,0.0,1.0,1.0,2
0.527054108216433,0.0,0.0,0.0,0.0,0.0,0.0161290322580645,0.0,0.525,0.7142857142857142,0.2,0.3061224489795918,0.4065420560747663,0.2560128273650454,0.2857142857142857,0.4444444444444444,0.7222222222222221,0.0,1.0,1.0,1
0.8677354709418839,1.0,0.0799999999999999,0.0,0.1176470588235294,1.0,0.0967741935483871,0.3333333333333333,0.1666666666666667,0.8571428571428572,0.3,0.2040816326530612,0.2156208277703605,0.8618385889898449,0.3571428571428571,0.4444444444444444,0.3333333333333333,1.0,0.0,1.0,3
0.1229124916499666,0.0,0.8800000000000001,0.0,0.4117647058823529,0.0,0.2419354838709677,0.2222222222222222,0.7833333333333333,0.7142857142857142,1.0,0.3698979591836735,0.246995994659546,0.2584179583110635,0.2142857142857143,0.0,0.8888888888888888,1.0,0.0,1.0,0
0.7975951903807617,0.0,0.0,1.0,0.3529411764705882,1.0,0.7096774193548387,0.6666666666666666,1.0,0.2857142857142857,0.45,0.9137755102040818,0.93324432576769,0.0507749866381614,0.7857142857142857,0.7222222222222222,0.7222222222222221,1.0,1.0,1.0,1
0.41750167000668,0.0,0.0799999999999999,0.0,0.1764705882352941,0.0,0.7580645161290323,0.8888888888888888,0.7083333333333334,1.0,0.8500000000000001,0.0581632653061224,0.8184245660881175,0.9307856761090324,0.6428571428571429,0.0555555555555555,0.6111111111111112,1.0,0.0,0.0,3
0.8329993319973281,1.0,0.0,1.0,0.6470588235294118,1.0,0.8225806451612904,0.4444444444444445,0.2833333333333333,0.4285714285714285,1.0,0.3663265306122449,0.4065420560747663,0.6352218065205771,0.7857142857142857,0.0,0.3888888888888889,1.0,0.0,0.0,2
0.0881763527054108,1.0,0.3599999999999999,0.0,0.0,1.0,0.7096774193548387,0.6666666666666666,0.1833333333333333,0.7142857142857142,0.5,0.361734693877551,0.9445927903871828,0.3059861036878674,1.0,0.7777777777777777,0.4999999999999999,1.0,1.0,0.0,1
0.3373413493653975,0.0,0.6800000000000002,1.0,0.2352941176470588,1.0,0.3225806451612903,0.7777777777777778,0.4583333333333333,0.4285714285714285,0.4,0.0178571428571428,0.3277703604806408,0.1745056119722073,0.9285714285714284,0.2222222222222222,0.2777777777777777,1.0,0.0,1.0,0
0.2712090848363394,0.0,0.3599999999999999,1.0,0.1764705882352941,0.0,0.6451612903225806,0.1111111111111111,0.5916666666666667,0.0,0.8,0.0872448979591836,0.0046728971962616,0.0876536611437733,0.4285714285714286,0.5,0.2222222222222222,1.0,0.0,0.0,0
0.8871075484301938,1.0,0.6400000000000001,0.0,0.4705882352941176,0.0,0.9193548387096774,0.0,0.0916666666666666,0.5714285714285714,0.75,0.7433673469387756,0.9472630173564752,0.7712453233564938,0.7857142857142857,0.3333333333333333,0.1666666666666666,1.0,1.0,1.0,3
0.3981295925183701,0.0,0.12,0.0,0.5882352941176471,1.0,0.3064516129032257,0.0,0.6666666666666666,0.8571428571428572,0.75,0.651530612244898,0.568758344459279,0.5245857830037413,0.7142857142857143,0.3333333333333333,0.5555555555555556,1.0,0.0,1.0,2
0.0961923847695391,0.0,0.2799999999999999,0.0,0.3529411764705882,1.0,0.6290322580645161,0.6666666666666666,0.8666666666666666,1.0,0.8500000000000001,0.3780612244897959,0.4205607476635513,0.1223944414751469,0.9285714285714284,0.1111111111111111,0.6111111111111112,1.0,1.0,0.0,0
0.5898463593854376,1.0,0.92,1.0,0.8823529411764706,0.0,0.935483870967742,0.0,0.0166666666666667,0.2857142857142857,0.9,0.501530612244898,0.4739652870493992,0.257883484767504,0.9285714285714284,0.6666666666666666,0.7222222222222221,1.0,0.0,1.0,1
0.0086840347361389,1.0,0.4400000000000001,0.0,0.4117647058823529,1.0,0.5645161290322581,0.0,0.7666666666666667,0.0,0.45,0.4877551020408163,0.8164218958611482,0.838054516301443,0.5,0.4444444444444444,0.1666666666666666,1.0,1.0,1.0,3
0.7468269873079494,1.0,0.56,0.0,0.1176470588235294,1.0,0.3064516129032257,0.3333333333333333,0.4833333333333333,0.0,0.45,0.023469387755102,0.041388518024032,0.3701229289150187,0.1428571428571429,0.1111111111111111,0.6111111111111112,1.0,0.0,0.0,1
0.4001336005344021,1.0,0.4400000000000001,0.0,0.7058823529411764,0.0,0.2096774193548387,0.0,0.2666666666666667,1.0,0.7000000000000001,0.4688775510204082,0.5634178905206942,0.1338856226616782,0.5,0.1111111111111111,0.7777777777777777,1.0,1.0,1.0,0
0.4094856379425519,0.0,0.92,0.0,0.2352941176470588,1.0,0.1129032258064516,0.3333333333333333,0.975,0.2857142857142857,0.75,0.5306122448979592,0.3811748998664886,0.1739711384286477,0.3571428571428571,0.3888888888888888,0.8333333333333333,1.0,1.0,0.0,0
0.2798931195724783,0.0,0.6400000000000001,1.0,0.2941176470588235,0.0,0.3709677419354839,0.3333333333333333,0.2916666666666667,0.8571428571428572,0.7000000000000001,0.1066326530612245,0.3858477970627503,0.1413682522715125,0.3571428571428571,0.3888888888888888,0.1666666666666666,0.0,1.0,1.0,0
0.6700066800267201,0.0,0.4000000000000001,0.0,0.7058823529411764,1.0,0.5161290322580645,0.6666666666666666,0.5166666666666667,1.0,0.75,0.2586734693877551,0.3157543391188251,0.681453768038482,0.1428571428571429,0.1111111111111111,0.2777777777777777,1.0,0.0,1.0,2
0.5330661322645291,1.0,0.92,1.0,0.0,0.0,1.0,0.4444444444444445,0.025,0.7142857142857142,0.3,0.023469387755102,0.2723631508678237,0.4494922501336184,1.0,0.4444444444444444,0.1666666666666666,1.0,0.0,1.0,1
0.5030060120240482,1.0,0.72,0.0,0.0,1.0,0.6774193548387097,0.1111111111111111,0.5750000000000001,0.0,0.5,0.1040816326530612,0.3477970627503337,0.7362373062533404,0.1428571428571429,0.2222222222222222,0.5555555555555556,1.0,1.0,0.0,2
0.9031396125584504,0.0,0.0,1.0,0.0588235294117647,0.0,0.4032258064516129,0.2222222222222222,0.975,0.7142857142857142,0.65,0.5025510204081634,0.3371161548731641,0.4588455371459112,0.3571428571428571,0.1111111111111111,0.3333333333333333,1.0,0.0,1.0,2
0.9051436205744824,0.0,0.0,1.0,0.0,1.0,0.3548387096774194,0.0,0.6250000000000001,0.5714285714285714,0.05,0.1413265306122449,0.4372496662216288,0.4799572421165152,0.8571428571428571,0.3333333333333333,0.4444444444444445,1.0,1.0,0.0,2
0.910487641950568,0.0,0.3599999999999999,0.0,0.4705882352941176,1.0,0.7096774193548387,0.6666666666666666,0.8166666666666668,0.0,0.6000000000000001,0.0857142857142857,0.3210947930574098,0.6493853554249064,0.4285714285714286,0.3888888888888888,0.8888888888888888,1.0,1.0,1.0,2
0.6773547094188377,0.0,0.8400000000000001,0.0,0.0,1.0,0.8709677419354839,0.8888888888888888,0.8666666666666666,0.2857142857142857,0.05,0.7336734693877551,0.7296395193591454,0.0016034206306787,0.6428571428571429,0.2222222222222222,1.0,1.0,1.0,0.0,0
0.6352705410821644,1.0,0.0,1.0,0.0588235294117647,1.0,0.3709677419354839,0.8888888888888888,0.3583333333333333,0.7142857142857142,0.55,0.0214285714285714,0.3604806408544726,0.6448423303046499,0.5,0.5555555555555556,0.6111111111111112,1.0,0.0,0.0,2
0.1209084836339345,1.0,0.0,0.0,0.2352941176470588,0.0,0.2741935483870967,1.0,0.3416666666666667,0.4285714285714285,0.55,0.4602040816326531,0.3765020026702269,0.5561197220737573,0.4285714285714286,0.0555555555555555,0.8888888888888888,0.0,1.0,1.0,1
0.1396125584502338,1.0,0.0,0.0,0.3529411764705882,0.0,0.4838709677419355,0.7777777777777778,0.5916666666666667,0.5714285714285714,0.45,0.2474489795918367,0.2383177570093457,0.3107963655799037,0.5,0.611111111111111,0.8888888888888888,0.0,1.0,0.0,0
0.4061456245824983,1.0,0.92,1.0,0.3529411764705882,0.0,0.8870967741935484,0.8888888888888888,0.5916666666666667,0.0,0.6000000000000001,0.0632653061224489,0.2222963951935914,0.6758417958311063,0.7142857142857143,0.5555555555555556,0.7777777777777777,1.0,0.0,0.0,2
0.989311957247829,0.0,0.24,0.0,0.7058823529411764,0.0,0.3548387096774194,0.0,0.4083333333333333,0.8571428571428572,0.8,0.3897959183673469,0.9165554072096128,0.8698556921432389,0.7857142857142857,0.7777777777777777,0.7222222222222221,1.0,1.0,1.0,3
0.4809619238476954,0.0,0.0,0.0,0.0588235294117647,1.0,0.4193548387096774,0.4444444444444445,0.4916666666666666,0.0,0.35,0.9668367346938777,0.985313751668892,0.5831106360235168,0.5714285714285714,0.611111111111111,0.4444444444444445,1.0,1.0,1.0,3
0.631930527722111,0.0,0.0,0.0,0.1764705882352941,0.0,0.6129032258064516,0.6666666666666666,0.8666666666666666,0.1428571428571428,0.25,0.4913265306122449,0.3751668891855807,0.0574559059326563,0.2142857142857143,0.2222222222222222,1.0,0.0,0.0,1.0,0
0.923179692718771,0.0,0.4400000000000001,0.0,0.5294117647058824,0.0,0.3548387096774194,0.0,0.0583333333333333,0.0,0.8,0.1035714285714285,0.2770360480640854,0.8837520042757883,0.8571428571428571,0.5555555555555556,0.0555555555555555,0.0,0.0,0.0,3
0.2050768203072812,0.0,0.56,0.0,0.4117647058823529,0.0,0.2903225806451612,0.7777777777777778,0.8750000000000001,0.7142857142857142,0.7000000000000001,0.2530612244897959,0.3164218958611482,0.3246926777124532,0.5714285714285714,0.2222222222222222,0.4999999999999999,0.0,1.0,0.0,0
0.3760855043420174,0.0,0.96,1.0,0.0588235294117647,1.0,0.5161290322580645,0.1111111111111111,0.8666666666666666,0.7142857142857142,0.65,0.5994897959183674,0.7136181575433911,0.1063602351683591,0.7857142857142857,0.7222222222222222,0.2222222222222222,1.0,0.0,0.0,0
0.3346693386773547,0.0,0.8400000000000001,1.0,0.4117647058823529,0.0,0.4032258064516129,0.0,0.5499999999999999,0.0,0.5,0.0586734693877551,0.4078771695594125,0.2776590058792089,0.9285714285714284,0.8333333333333333,0.8333333333333333,1.0,0.0,1.0,0
0.6720106880427523,1.0,0.16,1.0,0.0,1.0,0.6451612903225806,0.3333333333333333,0.3583333333333333,0.5714285714285714,0.0,0.3479591836734694,0.2590120160213618,0.3287012292891501,0.7142857142857143,0.1666666666666666,0.9444444444444444,1.0,0.0,0.0,1
0.828991315965264,1.0,0.4400000000000001,0.0,0.1764705882352941,0.0,0.7580645161290323,0.7777777777777778,0.1666666666666667,0.0,0.45,0.5785714285714286,0.6468624833110814,0.4518973810796365,0.0,0.2222222222222222,0.2222222222222222,1.0,0.0,1.0,2
0.2211088844355377,1.0,0.0,1.0,0.0588235294117647,1.0,0.0483870967741935,0.0,0.7083333333333334,0.5714285714285714,0.1,0.0045918367346938,0.9639519359145527,0.9861036878674504,0.5,0.2777777777777778,0.6666666666666665,1.0,1.0,1.0,3
0.2752171008684035,0.0,0.48,1.0,0.0588235294117647,1.0,0.6290322580645161,0.2222222222222222,0.1916666666666666,0.0,0.7000000000000001,0.2198979591836735,0.4299065420560747,0.5403527525387493,0.7142857142857143,0.1666666666666666,0.8888888888888888,1.0,1.0,0.0,1
0.5751503006012024,1.0,0.96,0.0,0.0,0.0,0.7258064516129032,0.4444444444444445,0.8833333333333334,0.7142857142857142,0.2,0.3061224489795918,0.3618157543391188,0.9013896312132548,1.0,0.9444444444444444,0.1666666666666666,0.0,1.0,1.0,3
0.6646626586506347,1.0,0.56,1.0,0.7647058823529411,0.0,0.5806451612903226,0.0,0.3833333333333334,0.4285714285714285,0.7000000000000001,0.2556122448979592,0.0040053404539385,0.4465526456440406,0.8571428571428571,0.2222222222222222,0.2222222222222222,0.0,0.0,1.0,1
0.0487641950567802,1.0,0.6000000000000001,1.0,0.0,1.0,0.3870967741935484,0.4444444444444445,0.3166666666666666,0.7142857142857142,0.1,0.1948979591836734,0.5767690253671561,0.2797969000534473,0.2142857142857143,0.2222222222222222,0.0,1.0,0.0,1.0,0
0.802939211756847,1.0,0.4000000000000001,1.0,1.0,1.0,0.8548387096774194,0.6666666666666666,0.4833333333333333,0.5714285714285714,0.95,0.7198979591836735,0.808411214953271,0.731427044361304,0.0,0.0555555555555555,1.0,1.0,1.0,1.0,3
0.3787575150300601,0.0,0.0799999999999999,1.0,0.5294117647058824,0.0,0.7903225806451613,0.4444444444444445,0.3666666666666666,0.4285714285714285,0.75,0.7168367346938777,0.9412550066755674,0.0785676109032602,0.5,0.4444444444444444,0.2222222222222222,1.0,1.0,0.0,0
0.9812959251837008,1.0,0.0,1.0,0.0,1.0,0.2096774193548387,1.0,0.4333333333333334,0.1428571428571428,0.0,0.7137755102040817,0.7903871829105473,0.3746659540352752,0.7142857142857143,0.5,1.0,1.0,1.0,1.0,2
0.2358049432197729,0.0,0.0,0.0,0.1176470588235294,0.0,0.4516129032258065,0.4444444444444445,0.3750000000000001,1.0,0.25,0.2642857142857143,0.4352469959946595,0.7036344200962051,0.0,0.1111111111111111,0.4999999999999999,0.0,0.0,1.0,2
0.6285905143620575,0.0,0.2,1.0,0.0,0.0,0.4032258064516129,0.0,0.9333333333333336,0.2857142857142857,0.95,0.1178571428571428,0.1248331108144192,0.5267236771779796,0.0714285714285714,0.2777777777777778,1.0,1.0,1.0,0.0,1
0.6646626586506347,1.0,0.6000000000000001,1.0,0.2352941176470588,0.0,0.6451612903225806,0.4444444444444445,0.85,0.5714285714285714,0.25,0.0489795918367347,0.1608811748998664,0.1598075895243185,0.7857142857142857,0.0,0.2777777777777777,0.0,1.0,1.0,0
0.1950567802271209,0.0,0.2,1.0,0.2941176470588235,1.0,0.4516129032258065,0.8888888888888888,0.4416666666666667,0.1428571428571428,0.75,0.9479591836734694,0.9579439252336448,0.5547835382148583,0.8571428571428571,0.7222222222222222,0.6666666666666665,1.0,1.0,1.0,2
0.3981295925183701,0.0,0.3599999999999999,0.0,0.0,0.0,0.935483870967742,0.7777777777777778,0.8416666666666667,0.0,0.8500000000000001,0.2066326530612245,0.0126835781041388,0.0676109032602886,0.7142857142857143,0.6666666666666666,0.5555555555555556,1.0,0.0,0.0,0
0.3226452905811624,0.0,0.0,1.0,0.1764705882352941,1.0,0.1129032258064516,0.7777777777777778,0.5000000000000001,0.2857142857142857,1.0,0.2709183673469388,0.1381842456608811,0.1563335114911812,0.9285714285714284,0.8333333333333333,0.7777777777777777,1.0,0.0,0.0,0
0.2211088844355377,0.0,0.0799999999999999,1.0,0.1176470588235294,1.0,0.5967741935483871,0.6666666666666666,0.1916666666666666,0.4285714285714285,0.15,0.0637755102040816,0.6702269692923899,0.4123463388562265,0.0,0.1111111111111111,0.4999999999999999,1.0,0.0,1.0,1
0.8810955243820977,1.0,0.3599999999999999,0.0,0.2941176470588235,0.0,0.7903225806451613,0.8888888888888888,0.6916666666666668,0.8571428571428572,0.5,0.1030612244897959,0.9238985313751668,0.594601817210048,0.4285714285714286,0.5,0.4999999999999999,0.0,0.0,0.0,2
0.3613894455577823,0.0,0.8800000000000001,1.0,0.9411764705882352,1.0,0.7741935483870968,0.7777777777777778,0.1083333333333333,0.8571428571428572,0.9,0.3709183673469388,0.8044058744993323,0.790753607696419,0.9285714285714284,0.0,1.0,1.0,1.0,1.0,3
0.083500334001336,1.0,0.92,1.0,0.1764705882352941,1.0,0.1451612903225806,0.7777777777777778,0.2416666666666667,0.1428571428571428,0.45,0.3760204081632653,0.8404539385847796,0.2194013896312132,0.0714285714285714,0.0555555555555555,0.1111111111111111,1.0,0.0,1.0,0
0.5310621242484971,0.0,0.3599999999999999,1.0,0.1764705882352941,0.0,0.1451612903225806,0.1111111111111111,0.4083333333333333,0.8571428571428572,0.2,0.6234693877551021,0.5887850467289719,0.6135756280064136,1.0,0.4444444444444444,0.4444444444444445,1.0,1.0,1.0,2
0.1523046092184369,1.0,0.6000000000000001,0.0,0.0,0.0,0.1935483870967742,0.5555555555555555,0.4583333333333333,0.7142857142857142,0.1,0.2872448979591837,0.3704939919893191,0.839390700160342,1.0,0.8333333333333333,0.8333333333333333,1.0,0.0,1.0,2
0.7909151636606548,0.0,0.0399999999999999,0.0,0.8235294117647058,0.0,0.2258064516129032,0.5555555555555555,0.475,0.8571428571428572,0.75,0.0612244897959183,0.6201602136181575,0.167022982362373,0.0714285714285714,0.1666666666666666,0.8333333333333333,0.0,1.0,1.0,0
0.4649298597194389,0.0,0.32,0.0,0.1764705882352941,1.0,0.2903225806451612,0.4444444444444445,0.5750000000000001,0.7142857142857142,0.35,0.3311224489795918,0.753671562082777,0.411811865312667,1.0,0.2777777777777778,0.1111111111111111,1.0,1.0,1.0,1
0.2284569138276553,0.0,0.32,1.0,0.0588235294117647,0.0,0.2258064516129032,0.8888888888888888,0.325,0.8571428571428572,0.2,0.3025510204081633,0.1548731642189585,0.3949759486905397,0.8571428571428571,0.4444444444444444,0.6666666666666665,0.0,0.0,1.0,1
0.4395457581830327,1.0,0.92,0.0,0.2941176470588235,1.0,0.2580645161290322,0.4444444444444445,0.025,0.0,0.35,0.3474489795918368,0.1488651535380507,0.5318011758417958,0.2142857142857143,0.0555555555555555,0.0555555555555555,1.0,1.0,0.0,1
0.6619906479625919,1.0,0.4000000000000001,0.0,0.2941176470588235,0.0,0.1451612903225806,0.8888888888888888,0.0416666666666667,0.2857142857142857,0.35,0.8591836734693878,0.8317757009345794,0.5352752538749331,0.6428571428571429,0.6666666666666666,0.9444444444444444,0.0,1.0,1.0,3
0.2271209084836339,1.0,0.0,1.0,0.4705882352941176,0.0,0.5967741935483871,0.0,0.9916666666666666,0.7142857142857142,0.65,0.2785714285714286,0.2189586114819759,0.7177979690005344,0.4285714285714286,0.2777777777777778,0.7777777777777777,0.0,1.0,1.0,2
0.3907815631262525,0.0,0.8800000000000001,0.0,0.0,1.0,0.3548387096774194,0.0,0.4583333333333333,1.0,0.95,0.956122448979592,0.985313751668892,0.9818278995189738,0.8571428571428571,0.0555555555555555,0.8888888888888888,1.0,1.0,1.0,3
0.3633934535738143,1.0,0.2799999999999999,1.0,0.1764705882352941,1.0,0.6129032258064516,0.0,0.7916666666666666,0.7142857142857142,0.35,0.55,0.7102803738317756,0.5026723677177979,0.4285714285714286,0.4444444444444444,0.5555555555555556,1.0,0.0,1.0,2
0.1442885771543086,1.0,0.0,1.0,0.2352941176470588,0.0,0.1290322580645161,0.5555555555555555,0.9833333333333332,0.0,0.25,0.1107142857142857,0.404539385847797,0.1154462854088722,0.3571428571428571,0.3888888888888888,0.7222222222222221,0.0,1.0,0.0,0
0.8423513694054776,0.0,0.0799999999999999,0.0,0.4117647058823529,0.0,0.935483870967742,0.0,0.6416666666666667,0.4285714285714285,0.5,0.3280612244897959,0.1935914552736982,0.3003741314804917,0.6428571428571429,0.2777777777777778,0.6666666666666665,1.0,0.0,0.0,1
0.6179024716098865,1.0,0.8,0.0,0.1176470588235294,1.0,0.8548387096774194,0.3333333333333333,0.2416666666666667,0.0,0.35,0.3964285714285714,0.3551401869158878,0.6162479957242116,0.0,0.0555555555555555,0.0555555555555555,1.0,0.0,0.0,2
0.5130260521042085,1.0,0.32,0.0,0.8235294117647058,0.0,0.8064516129032258,0.7777777777777778,0.3166666666666666,0.1428571428571428,0.75,0.814795918367347,0.9479305740987984,0.1092998396579369,0.9285714285714284,0.2777777777777778,0.1666666666666666,0.0,0.0,0.0,1
0.6633266533066133,0.0,0.4400000000000001,0.0,0.1764705882352941,1.0,0.6935483870967742,0.7777777777777778,0.65,0.5714285714285714,0.2,0.2290816326530612,0.1935914552736982,0.7888829502939604,0.4285714285714286,0.5,0.1111111111111111,1.0,0.0,0.0,3
0.7000668002672013,1.0,0.52,1.0,0.0,0.0,0.967741935483871,0.6666666666666666,0.0916666666666666,0.4285714285714285,0.2,0.085204081632653,0.3271028037383177,0.1451095670764297,0.1428571428571429,0.1666666666666666,0.3888888888888889,1.0,0.0,1.0,0
0.1409485637942552,1.0,0.0,1.0,0.1764705882352941,1.0,0.532258064516129,0.1111111111111111,0.0333333333333333,0.1428571428571428,0.5,0.2846938775510204,0.472630173564753,0.5168359166221271,0.7857142857142857,0.6666666666666666,0.1111111111111111,1.0,1.0,1.0,1
0.0100200400801603,0.0,0.24,1.0,0.0,1.0,0.5967741935483871,0.3333333333333333,0.0916666666666666,0.5714285714285714,0.35,0.4362244897959184,0.6014686248331108,0.1504543025120256,0.2142857142857143,0.0,0.4444444444444445,1.0,1.0,1.0,0
0.3453573814295257,0.0,0.6800000000000002,0.0,0.4705882352941176,0.0,0.2258064516129032,0.5555555555555555,0.6083333333333333,1.0,0.5,0.5061224489795919,0.6228304405874499,0.7715125601282736,0.8571428571428571,0.6666666666666666,1.0,0.0,1.0,0.0,3
0.6098864395457583,0.0,0.6000000000000001,1.0,0.1176470588235294,0.0,0.8387096774193549,0.7777777777777778,0.1583333333333333,0.8571428571428572,0.15,0.1336734693877551,0.219626168224299,0.9468198824158204,0.8571428571428571,0.3888888888888888,0.2777777777777777,1.0,0.0,1.0,3
0.8530394121576488,0.0,0.3599999999999999,1.0,0.1764705882352941,1.0,0.6935483870967742,1.0,0.4333333333333334,0.4285714285714285,0.8500000000000001,0.0448979591836734,0.0106809078771695,0.3655799037947621,0.7142857142857143,0.7222222222222222,0.3888888888888889,1.0,1.0,0.0,1
0.0113560454241817,0.0,0.12,1.0,0.0,0.0,0.0161290322580645,0.0,0.8166666666666668,0.8571428571428572,0.05,0.2229591836734694,0.965954606141522,0.6884019241047568,0.0,0.0,0.3333333333333333,1.0,0.0,1.0,2
0.4622578490313962,1.0,1.0000000000000002,0.0,0.5882352941176471,0.0,0.8709677419354839,0.3333333333333333,0.9666666666666668,0.2857142857142857,0.8500000000000001,0.3438775510204082,0.2429906542056075,0.5713522180652058,1.0,0.611111111111111,0.6666666666666665,1.0,1.0,0.0,2
0.4789579158316633,0.0,0.52,1.0,0.0588235294117647,1.0,0.1935483870967742,0.4444444444444445,0.5583333333333335,0.2857142857142857,0.2,0.1168367346938775,0.0774365821094792,0.0379476215927311,0.8571428571428571,0.0,0.1666666666666666,1.0,0.0,0.0,0
0.5971943887775552,0.0,0.52,1.0,0.0,0.0,0.3387096774193548,0.0,0.2583333333333333,0.2857142857142857,0.05,0.1086734693877551,0.1368491321762349,0.6186531266702298,0.4285714285714286,0.0,0.6111111111111112,1.0,0.0,1.0,2
0.4549098196392785,0.0,0.0,0.0,0.4117647058823529,1.0,0.0967741935483871,0.4444444444444445,0.4833333333333333,1.0,0.8,0.1403061224489796,0.3244325767690253,0.6165152324959914,1.0,0.9444444444444444,0.9444444444444444,1.0,0.0,0.0,2
0.4909819639278557,1.0,0.92,0.0,0.3529411764705882,1.0,0.4838709677419355,0.2222222222222222,0.525,0.4285714285714285,0.9,0.2510204081632653,0.602803738317757,0.1833244254409406,0.7857142857142857,0.6666666666666666,0.6666666666666665,1.0,1.0,1.0,0
0.0754843019372077,1.0,0.0799999999999999,0.0,0.2352941176470588,1.0,0.7903225806451613,0.0,0.8166666666666668,0.8571428571428572,0.35,0.516326530612245,0.3604806408544726,0.6942811330839123,0.3571428571428571,0.3888888888888888,0.5555555555555556,1.0,0.0,1.0,2
0.353373413493654,1.0,0.0,0.0,0.2352941176470588,1.0,0.5645161290322581,0.6666666666666666,0.5583333333333335,0.0,0.4,0.2566326530612245,0.0340453938584779,0.6798503474078033,0.2142857142857143,0.3333333333333333,0.5555555555555556,1.0,0.0,1.0,2
0.98062792251169,0.0,0.2799999999999999,1.0,0.5294117647058824,0.0,0.9838709677419356,0.1111111111111111,0.4333333333333334,0.4285714285714285,0.55,0.1989795918367347,0.1708945260347129,0.0112239444147514,0.3571428571428571,0.0555555555555555,0.4444444444444445,1.0,1.0,0.0,0
0.4696058784235137,1.0,0.8400000000000001,0.0,0.0,0.0,0.1290322580645161,0.2222222222222222,0.9916666666666666,0.8571428571428572,0.15,0.2448979591836735,0.6555407209612817,0.3923035809727418,0.4285714285714286,0.1111111111111111,0.9444444444444444,1.0,0.0,0.0,1
0.6967267869071476,0.0,0.72,0.0,0.7058823529411764,1.0,0.6935483870967742,0.0,0.275,1.0,1.0,0.1204081632653061,0.2383177570093457,0.2789951897381079,0.2142857142857143,0.3888888888888888,0.8888888888888888,1.0,1.0,0.0,1
0.4635938543754175,1.0,0.24,1.0,0.1176470588235294,1.0,0.0967741935483871,0.8888888888888888,0.0,0.7142857142857142,0.3,0.1668367346938775,0.3344459279038718,0.1034206306787813,0.6428571428571429,0.1111111111111111,0.9444444444444444,1.0,0.0,0.0,0
0.4509018036072144,1.0,0.6400000000000001,0.0,0.1176470588235294,1.0,0.967741935483871,0.4444444444444445,0.7333333333333333,0.1428571428571428,0.5,0.3438775510204082,0.6375166889185581,0.3415285943345804,0.0714285714285714,0.1111111111111111,0.8333333333333333,1.0,0.0,0.0,1
0.6806947227788911,0.0,0.0,0.0,0.0588235294117647,1.0,0.3548387096774194,0.6666666666666666,0.9916666666666666,0.5714285714285714,0.4,0.0556122448979591,0.9405874499332444,0.7955638695884553,0.5714285714285714,0.1666666666666666,0.1111111111111111,1.0,0.0,1.0,3
0.2090848363393453,1.0,0.24,1.0,0.1176470588235294,0.0,0.6290322580645161,0.7777777777777778,0.8083333333333335,0.1428571428571428,0.5,0.5571428571428572,0.6048064085447262,0.4510956707642971,0.7857142857142857,0.3333333333333333,0.5555555555555556,1.0,0.0,0.0,1
0.4836339345357382,1.0,0.76,0.0,0.0,0.0,0.2096774193548387,0.0,0.6250000000000001,0.5714285714285714,0.0,0.4285714285714286,0.3217623497997329,0.4580438268305719,0.7857142857142857,0.4444444444444444,0.7222222222222221,1.0,1.0,0.0,1
0.60187040748163,1.0,0.0399999999999999,1.0,0.1764705882352941,0.0,0.7096774193548387,0.2222222222222222,0.0583333333333333,0.8571428571428572,0.6000000000000001,0.551530612244898,0.8457943925233644,0.0243185462319615,0.8571428571428571,0.0,0.5555555555555556,1.0,0.0,1.0,0
0.2899131596526386,1.0,0.0,1.0,0.1764705882352941,1.0,0.9032258064516128,0.0,0.6250000000000001,0.5714285714285714,0.6000000000000001,0.3260204081632653,0.3918558077436581,0.5924639230358096,0.3571428571428571,0.2222222222222222,0.3888888888888889,1.0,0.0,1.0,2
0.0554442217768871,1.0,0.48,1.0,0.0588235294117647,1.0,0.2741935483870967,0.3333333333333333,0.9916666666666666,0.4285714285714285,0.2,0.4688775510204082,0.5627503337783711,0.9994655264564404,0.5,0.5,0.8333333333333333,1.0,1.0,1.0,3
0.4876419505678023,0.0,0.0799999999999999,1.0,0.1176470588235294,0.0,0.0806451612903225,0.8888888888888888,0.275,0.0,0.35,0.021938775510204,0.7763684913217623,0.7650988776055585,0.2857142857142857,0.2222222222222222,0.7222222222222221,1.0,1.0,0.0,3
0.8750835003340014,1.0,0.6000000000000001,0.0,0.1764705882352941,1.0,0.3225806451612903,0.1111111111111111,0.0166666666666667,0.1428571428571428,0.4,0.1826530612244898,0.076101468624833,0.6924104756814538,0.2857142857142857,0.1111111111111111,0.1111111111111111,1.0,0.0,1.0,2
0.1088844355377421,1.0,0.24,1.0,0.0588235294117647,1.0,0.7903225806451613,0.0,0.25,0.8571428571428572,0.2,0.3576530612244898,0.6528704939919893,0.9013896312132548,1.0,0.8333333333333333,0.2222222222222222,1.0,1.0,1.0,3
0.6332665330661323,1.0,0.0,1.0,0.0,0.0,0.8064516129032258,0.5555555555555555,0.2083333333333333,0.7142857142857142,0.0,0.1076530612244898,0.2983978638184246,0.4756814537680385,0.0,0.0555555555555555,0.4444444444444445,0.0,1.0,0.0,1
0.2444889779559118,0.0,0.3599999999999999,1.0,0.0,1.0,0.032258064516129,0.6666666666666666,0.4583333333333333,0.7142857142857142,0.05,0.0357142857142857,0.9839786381842456,0.1427044361304115,0.5714285714285714,0.3333333333333333,0.0555555555555555,1.0,1.0,0.0,0
0.3767535070140281,1.0,0.0,0.0,0.0,1.0,0.1935483870967742,0.6666666666666666,0.075,0.1428571428571428,0.1,0.0959183673469387,0.2857142857142857,0.7541421699625868,0.3571428571428571,0.0555555555555555,0.8888888888888888,1.0,0.0,1.0,2
0.3754175016700067,1.0,0.24,0.0,0.0,1.0,0.3870967741935484,0.7777777777777778,0.175,0.5714285714285714,0.1,0.616326530612245,0.4886515353805073,0.9494922501336184,0.8571428571428571,0.8888888888888888,0.1666666666666666,1.0,0.0,1.0,3
0.6947227788911157,1.0,0.92,1.0,0.5882352941176471,1.0,0.4193548387096774,0.1111111111111111,0.7083333333333334,0.5714285714285714,0.75,0.4061224489795919,0.3684913217623498,0.2276857295563869,0.5,0.0555555555555555,0.2777777777777777,1.0,0.0,1.0,1
0.3132932531730127,1.0,0.32,1.0,0.2941176470588235,0.0,0.9193548387096774,0.1111111111111111,0.0333333333333333,0.8571428571428572,0.95,0.9005102040816327,0.8584779706275032,0.9136825227151256,0.5,0.0,0.5555555555555556,0.0,0.0,0.0,3
0.7114228456913829,1.0,0.0,1.0,0.0,0.0,0.2903225806451612,0.4444444444444445,0.3833333333333334,0.1428571428571428,0.0,0.817857142857143,0.9546061415220292,0.1076964190272581,0.6428571428571429,0.5,0.6111111111111112,1.0,1.0,1.0,1
0.0541082164328657,0.0,0.0,1.0,0.1764705882352941,0.0,0.4032258064516129,0.1111111111111111,0.7333333333333333,0.2857142857142857,0.5,0.5025510204081634,0.6141522029372496,0.582843399251737,1.0,0.1111111111111111,0.0,1.0,1.0,1.0,2
0.7107548430193722,1.0,0.0,0.0,0.0,0.0,0.5806451612903226,0.0,0.3416666666666667,0.5714285714285714,0.05,0.3984693877551021,0.5767690253671561,0.0138963121325494,1.0,0.9444444444444444,0.2777777777777777,1.0,1.0,1.0,0
0.6025384101536407,0.0,0.8800000000000001,0.0,0.1176470588235294,1.0,0.3870967741935484,0.0,0.7000000000000001,0.5714285714285714,0.15,0.235204081632653,0.5013351134846462,0.8324425440940673,0.5714285714285714,0.5,0.3888888888888889,1.0,0.0,1.0,3
0.9986639946559788,0.0,0.8,0.0,0.2941176470588235,1.0,0.7903225806451613,0.3333333333333333,0.35,0.4285714285714285,0.45,0.3423469387755102,0.6308411214953271,0.5291288081239978,0.2142857142857143,0.3888888888888888,0.5555555555555556,1.0,0.0,1.0,2
0.3714094856379426,0.0,0.6400000000000001,0.0,0.2352941176470588,0.0,0.0483870967741935,0.4444444444444445,0.6166666666666666,0.5714285714285714,0.65,0.2122448979591837,0.3704939919893191,0.9216996258685194,0.0714285714285714,0.2222222222222222,0.6111111111111112,1.0,0.0,0.0,3
0.7641950567802271,1.0,0.52,0.0,0.0588235294117647,0.0,0.3064516129032257,0.6666666666666666,0.3583333333333333,0.8571428571428572,0.1,0.4576530612244898,0.5393858477970627,0.1408337787279529,0.3571428571428571,0.4444444444444444,1.0,1.0,0.0,0.0,0
0.4996659986639947,1.0,0.0,0.0,0.1764705882352941,1.0,0.8548387096774194,0.7777777777777778,0.5000000000000001,0.2857142857142857,0.4,0.3086734693877551,0.4626168224299065,0.0734901122394441,0.9285714285714284,0.5555555555555556,0.6111111111111112,1.0,1.0,1.0,0
0.3680694722778892,0.0,0.16,0.0,0.0588235294117647,0.0,0.064516129032258,0.7777777777777778,0.9583333333333334,0.4285714285714285,0.8,0.6076530612244898,0.8938584779706276,0.0791020844468198,0.0714285714285714,0.0555555555555555,0.4999999999999999,0.0,0.0,1.0,0
0.0060120240480961,0.0,0.8400000000000001,0.0,0.0,0.0,0.5,0.0,0.25,0.7142857142857142,0.5,0.536734693877551,0.932576769025367,0.3840192410475681,0.0714285714285714,0.1111111111111111,0.1666666666666666,0.0,1.0,0.0,1
0.5517702070808284,0.0,0.92,0.0,0.5882352941176471,0.0,0.3387096774193548,0.4444444444444445,0.075,0.8571428571428572,0.8,0.225,0.815086782376502,0.1646178514163548,0.1428571428571429,0.2777777777777778,0.1111111111111111,1.0,1.0,1.0,0
0.6733466933867736,0.0,0.0399999999999999,1.0,0.2941176470588235,0.0,0.7741935483870968,0.2222222222222222,0.0083333333333334,0.4285714285714285,0.4,0.5153061224489797,0.7903871829105473,0.3431320149652592,0.5,0.4444444444444444,0.0555555555555555,1.0,1.0,0.0,1
0.3259853039412158,1.0,0.6000000000000001,0.0,0.2352941176470588,0.0,0.2419354838709677,0.1111111111111111,0.7166666666666667,0.2857142857142857,0.95,0.1306122448979592,0.5967957276368491,0.9716729021913416,0.9285714285714284,0.3888888888888888,0.9444444444444444,1.0,1.0,0.0,3
0.2738810955243821,0.0,0.3599999999999999,1.0,0.1764705882352941,0.0,0.1935483870967742,0.6666666666666666,0.9916666666666666,0.4285714285714285,0.2,0.7974489795918368,0.7957276368491322,0.7153928380545163,0.7857142857142857,0.1666666666666666,0.4999999999999999,0.0,1.0,0.0,3
0.0420841683366733,0.0,1.0000000000000002,1.0,0.0588235294117647,0.0,0.0967741935483871,0.6666666666666666,0.4166666666666666,0.1428571428571428,0.15,0.4352040816326531,0.8257676902536715,0.5267236771779796,0.2857142857142857,0.1111111111111111,0.6666666666666665,1.0,0.0,1.0,1
0.8724114896459587,1.0,0.0,1.0,0.1176470588235294,1.0,0.9516129032258064,0.0,0.45,0.7142857142857142,0.3,0.8846938775510205,0.9799732977303072,0.9273115980758952,0.2142857142857143,0.2777777777777778,0.7222222222222221,1.0,0.0,0.0,3
0.7060788243152973,1.0,0.76,0.0,0.0,1.0,0.4032258064516129,0.0,0.5499999999999999,0.0,0.05,0.0612244897959183,0.6068090787716955,0.8931052912880811,0.2857142857142857,0.1111111111111111,0.5555555555555556,1.0,0.0,1.0,3
0.8062792251169006,0.0,0.12,0.0,0.4705882352941176,1.0,0.1935483870967742,0.8888888888888888,0.975,0.4285714285714285,0.8,0.1341836734693877,0.5640854472630173,0.2648316408337787,1.0,0.8888888888888888,0.7777777777777777,1.0,0.0,0.0,1
0.2972611890447562,0.0,0.6400000000000001,0.0,0.0,1.0,0.2741935483870967,0.1111111111111111,0.6166666666666666,1.0,0.0,0.0811224489795918,0.0867823765020026,0.4938535542490646,0.1428571428571429,0.2222222222222222,0.7777777777777777,1.0,1.0,0.0,1
0.1576486305945224,1.0,0.76,1.0,0.4117647058823529,0.0,0.7580645161290323,0.5555555555555555,0.9416666666666668,0.4285714285714285,0.8,0.3984693877551021,0.6428571428571428,0.7202030999465526,0.1428571428571429,0.0,0.4444444444444445,0.0,1.0,0.0,2
0.7221108884435539,0.0,0.92,0.0,0.1176470588235294,1.0,0.6774193548387097,0.4444444444444445,0.2666666666666667,0.7142857142857142,0.65,0.7581632653061225,0.8658210947930574,0.9711384286477818,0.8571428571428571,0.5555555555555556,0.4444444444444445,1.0,1.0,1.0,3
0.0895123580494322,1.0,0.0,0.0,0.5294117647058824,0.0,0.2258064516129032,1.0,0.25,0.8571428571428572,0.8500000000000001,0.3056122448979592,0.5333778371161548,0.586851950828434,1.0,0.9444444444444444,0.3333333333333333,1.0,0.0,0.0,2
0.6873747494989981,0.0,0.6000000000000001,0.0,0.6470588235294118,0.0,0.6451612903225806,0.7777777777777778,0.8083333333333335,0.7142857142857142,0.65,0.2316326530612245,0.9846461949265688,0.1253340459647247,0.4285714285714286,0.5555555555555556,0.9444444444444444,0.0,0.0,1.0,0
0.2104208416833667,0.0,1.0000000000000002,1.0,0.1176470588235294,0.0,0.1129032258064516,0.0,0.3083333333333333,0.0,0.15,0.6102040816326532,0.7683578104138851,0.9607161945483698,0.3571428571428571,0.1666666666666666,0.6666666666666665,1.0,0.0,1.0,3
0.0066800267201069,1.0,1.0000000000000002,1.0,0.2941176470588235,1.0,0.5161290322580645,0.8888888888888888,0.3750000000000001,1.0,0.65,0.0760204081632653,0.5240320427236315,0.8041154462854088,0.6428571428571429,0.3888888888888888,0.6666666666666665,1.0,0.0,0.0,2
0.5110220440881764,0.0,0.8400000000000001,0.0,0.0588235294117647,0.0,0.2580645161290322,0.3333333333333333,0.05,0.8571428571428572,0.1,0.6056122448979593,0.7309746328437916,0.0379476215927311,0.7857142857142857,0.4444444444444444,0.0555555555555555,1.0,1.0,1.0,0
0.5637942551770208,1.0,1.0000000000000002,0.0,0.4117647058823529,1.0,0.5806451612903226,0.0,0.6833333333333335,0.2857142857142857,0.55,0.2612244897959184,0.644192256341789,0.2848743987172635,0.2857142857142857,0.1111111111111111,0.7222222222222221,1.0,0.0,0.0,1
0.0267201068804275,1.0,0.72,0.0,0.2352941176470588,0.0,0.7903225806451613,0.3333333333333333,1.0,1.0,0.8500000000000001,0.516326530612245,0.4846461949265687,0.0392838054516301,0.4285714285714286,0.1111111111111111,0.5555555555555556,0.0,0.0,0.0,0
0.1416165664662659,0.0,0.16,1.0,0.0,0.0,0.6451612903225806,0.0,0.1166666666666667,0.0,0.7000000000000001,0.5346938775510205,0.4158878504672897,0.1795831106360235,0.5,0.5555555555555556,0.3888888888888889,0.0,0.0,1.0,0
0.9779559118236474,0.0,0.0,0.0,0.3529411764705882,1.0,0.032258064516129,1.0,0.0333333333333333,0.8571428571428572,0.45,0.4984693877551021,0.774365821094793,0.876269374665954,0.8571428571428571,0.0,0.7777777777777777,1.0,1.0,1.0,3
0.7181028724114897,1.0,0.6800000000000002,0.0,0.4705882352941176,0.0,0.0483870967741935,0.6666666666666666,0.4916666666666666,0.2857142857142857,0.8500000000000001,0.1316326530612245,0.1929238985313751,0.974879743452699,0.0,0.0555555555555555,0.2777777777777777,1.0,1.0,1.0,3
0.1422845691382765,1.0,0.0,0.0,0.0588235294117647,0.0,0.4516129032258065,0.2222222222222222,0.5416666666666666,0.4285714285714285,0.1,0.3280612244897959,0.6855807743658211,0.5467664350614644,0.5,0.5555555555555556,0.4444444444444445,0.0,1.0,1.0,1
0.8944555778223113,0.0,0.0,1.0,0.7058823529411764,0.0,0.5161290322580645,0.6666666666666666,0.5166666666666667,0.0,0.8,0.1586734693877551,0.6975967957276368,0.219668626402993,0.2142857142857143,0.0,0.4444444444444445,0.0,0.0,0.0,1
0.937875751503006,0.0,0.0399999999999999,1.0,0.5294117647058824,1.0,0.5483870967741935,0.3333333333333333,0.325,0.2857142857142857,1.0,0.4209183673469388,0.6955941255006675,0.2755211117049705,0.5714285714285714,0.2222222222222222,0.7777777777777777,1.0,0.0,0.0,1
0.0661322645290581,1.0,0.52,0.0,0.5294117647058824,1.0,0.064516129032258,0.7777777777777778,0.9916666666666666,0.1428571428571428,0.75,0.2479591836734694,0.3551401869158878,0.8655799037947621,0.8571428571428571,0.2222222222222222,0.2777777777777777,1.0,1.0,0.0,2
0.0948563794255177,0.0,0.2,0.0,0.5294117647058824,1.0,0.2580645161290322,0.1111111111111111,0.8916666666666667,1.0,0.6000000000000001,0.2255102040816326,0.3865153538050734,0.6392303580972741,0.1428571428571429,0.2777777777777778,0.8888888888888888,1.0,1.0,1.0,1
0.1042084168336673,1.0,0.56,1.0,0.1176470588235294,0.0,0.3064516129032257,0.0,0.25,1.0,0.4,0.3596938775510204,0.937917222963952,0.1408337787279529,0.0714285714285714,0.0555555555555555,0.4999999999999999,1.0,1.0,0.0,0
0.3540414161656647,1.0,0.6400000000000001,1.0,0.1176470588235294,1.0,0.1451612903225806,0.0,0.3416666666666667,0.1428571428571428,0.45,0.2714285714285714,0.4986648865153538,0.5689470871191875,0.4285714285714286,0.3888888888888888,0.7777777777777777,1.0,0.0,0.0,2
0.87374749498998,0.0,0.0,0.0,0.3529411764705882,0.0,0.3387096774193548,0.6666666666666666,0.3583333333333333,0.7142857142857142,0.95,0.2209183673469388,0.7750333778371161,0.6755745590593265,0.5,0.3333333333333333,1.0,1.0,1.0,1.0,3
0.5865063460253842,0.0,0.0,1.0,0.0588235294117647,0.0,0.2741935483870967,0.2222222222222222,0.45,1.0,0.8500000000000001,0.1974489795918367,0.1141522029372496,0.9770176376269376,0.4285714285714286,0.1111111111111111,0.9444444444444444,0.0,1.0,1.0,3
0.0487641950567802,1.0,1.0000000000000002,0.0,0.0588235294117647,1.0,0.4516129032258065,0.8888888888888888,0.3833333333333334,0.1428571428571428,0.15,0.0479591836734693,0.5567423230974633,0.2434526990913949,0.0,0.1666666666666666,0.9444444444444444,1.0,0.0,0.0,0
0.1409485637942552,0.0,0.0,0.0,0.3529411764705882,0.0,0.4032258064516129,0.4444444444444445,0.05,0.1428571428571428,0.55,0.6352040816326531,0.5400534045393858,0.4663281667557455,0.4285714285714286,0.5555555555555556,0.5555555555555556,1.0,1.0,1.0,1
0.2284569138276553,1.0,0.0,0.0,0.0588235294117647,1.0,0.8709677419354839,0.0,0.5583333333333335,0.5714285714285714,0.8500000000000001,0.0714285714285714,0.2002670226969292,0.5571886691608765,0.3571428571428571,0.0555555555555555,1.0,1.0,1.0,1.0,1
0.3179692718770875,1.0,0.24,1.0,0.1176470588235294,0.0,0.8870967741935484,0.5555555555555555,0.8416666666666667,0.7142857142857142,0.35,0.0321428571428571,0.0440587449933244,0.253874933190807,0.1428571428571429,0.0555555555555555,0.3333333333333333,0.0,1.0,1.0,0
0.5838343353373414,1.0,0.24,0.0,0.1764705882352941,1.0,0.1129032258064516,0.8888888888888888,0.5416666666666666,0.8571428571428572,0.95,0.2423469387755102,0.15086782376502,0.965526456440406,1.0,1.0,0.4444444444444445,1.0,1.0,1.0,3
0.1823647294589179,1.0,0.92,0.0,0.4117647058823529,1.0,0.8548387096774194,0.8888888888888888,0.3666666666666666,0.2857142857142857,0.9,0.0040816326530612,0.2643524699599465,0.9780865847140564,0.2142857142857143,0.0555555555555555,0.5555555555555556,1.0,1.0,0.0,3
0.9004676018704076,1.0,0.0,0.0,0.0588235294117647,0.0,0.4354838709677419,0.4444444444444445,0.8416666666666667,0.8571428571428572,0.6000000000000001,0.4989795918367347,0.9919893190921228,0.8214858364510956,0.6428571428571429,0.2222222222222222,0.7222222222222221,1.0,0.0,1.0,3
0.0781563126252505,0.0,0.6400000000000001,0.0,0.1176470588235294,0.0,0.064516129032258,0.2222222222222222,0.05,0.0,0.2,0.6704081632653062,0.7930574098798397,0.2124532335649385,0.5714285714285714,0.5555555555555556,0.7222222222222221,0.0,0.0,1.0,0
0.0300601202404809,1.0,0.8400000000000001,1.0,0.2941176470588235,0.0,0.3870967741935484,1.0,0.6583333333333333,0.5714285714285714,0.75,0.2122448979591837,0.7730307076101468,0.3458043826830571,0.1428571428571429,0.1111111111111111,0.0555555555555555,0.0,1.0,0.0,1
0.3380093520374082,0.0,0.6000000000000001,0.0,0.0,0.0,0.6935483870967742,0.0,0.125,0.5714285714285714,0.1,0.6051020408163266,0.6869158878504673,0.906467129877071,0.2857142857142857,0.0,0.7777777777777777,0.0,0.0,0.0,3
0.6098864395457583,0.0,0.0,0.0,0.0,1.0,0.2096774193548387,0.7777777777777778,0.7333333333333333,0.1428571428571428,0.0,0.15,0.4893190921228304,0.2172634954569748,0.9285714285714284,0.3333333333333333,0.6666666666666665,1.0,0.0,0.0,0
0.3780895123580494,1.0,0.76,1.0,0.1764705882352941,1.0,0.6129032258064516,0.5555555555555555,0.35,1.0,0.75,0.2520408163265306,0.993991989319092,0.0929983965793693,0.7857142857142857,0.7777777777777777,0.4999999999999999,1.0,0.0,0.0,0
0.2798931195724783,1.0,0.0,0.0,0.1176470588235294,0.0,0.7096774193548387,0.7777777777777778,0.5750000000000001,0.2857142857142857,0.15,0.539795918367347,0.6148197596795727,0.6285408872260823,0.0714285714285714,0.0,0.0,0.0,0.0,1.0,2
0.2044088176352706,1.0,0.0,1.0,0.0,0.0,0.5645161290322581,0.1111111111111111,0.3916666666666667,0.4285714285714285,0.0,0.125,0.219626168224299,0.551309460181721,0.0,0.2222222222222222,0.1111111111111111,0.0,0.0,0.0,1
0.1917167668670675,0.0,0.8,1.0,0.2352941176470588,1.0,0.8870967741935484,0.8888888888888888,0.0916666666666666,1.0,0.6000000000000001,0.0214285714285714,0.4412550066755674,0.9922501336183858,0.5,0.4444444444444444,0.2222222222222222,1.0,1.0,1.0,3
0.4736138944555779,0.0,0.0,0.0,0.0,0.0,0.9838709677419356,0.0,0.1083333333333333,0.5714285714285714,0.0,0.6005102040816327,0.6421895861148197,0.5713522180652058,0.8571428571428571,0.5,0.2777777777777777,0.0,0.0,0.0,2
0.1543086172344689,1.0,0.72,1.0,0.4117647058823529,1.0,0.5967741935483871,0.5555555555555555,0.9,0.8571428571428572,0.55,0.5933673469387756,0.7036048064085447,0.9152859433458044,1.0,0.1666666666666666,0.7222222222222221,1.0,1.0,1.0,3
0.5190380761523047,1.0,0.2799999999999999,0.0,0.5882352941176471,1.0,0.935483870967742,0.5555555555555555,0.7666666666666667,0.8571428571428572,0.7000000000000001,0.6346938775510205,0.6702269692923899,0.7712453233564938,0.4285714285714286,0.2222222222222222,0.9444444444444444,1.0,0.0,1.0,3
0.8189712758851035,0.0,0.6400000000000001,0.0,0.1176470588235294,1.0,0.9838709677419356,0.5555555555555555,0.0416666666666667,0.8571428571428572,0.4,0.7464285714285714,0.9959946595460614,0.5881881346873329,1.0,0.7222222222222222,0.2777777777777777,1.0,0.0,1.0,3
0.9779559118236474,1.0,0.0,0.0,0.2352941176470588,1.0,0.4354838709677419,0.4444444444444445,0.5750000000000001,0.5714285714285714,0.65,0.2979591836734694,0.1174899866488651,0.7260823089257081,0.4285714285714286,0.0555555555555555,1.0,1.0,1.0,1.0,3
0.8724114896459587,1.0,0.6400000000000001,0.0,0.1176470588235294,0.0,0.7580645161290323,0.7777777777777778,0.3750000000000001,0.0,0.5,0.1719387755102041,0.5901201602136181,0.4409406734366649,0.8571428571428571,0.7222222222222222,0.6111111111111112,0.0,1.0,1.0,2
0.0701402805611222,0.0,0.8,0.0,0.0588235294117647,1.0,0.8225806451612904,0.1111111111111111,0.5499999999999999,0.4285714285714285,0.1,0.2372448979591837,0.4352469959946595,0.2584179583110635,1.0,0.6666666666666666,0.2777777777777777,1.0,0.0,0.0,0
0.5611222444889781,1.0,0.6400000000000001,1.0,0.0,0.0,0.5483870967741935,0.3333333333333333,0.2249999999999999,1.0,0.05,0.2413265306122449,0.0493991989319091,0.5195082843399251,0.9285714285714284,0.7777777777777777,0.7222222222222221,0.0,1.0,0.0,1
0.177688710754843,0.0,0.12,0.0,0.4117647058823529,1.0,0.1290322580645161,0.4444444444444445,0.2249999999999999,0.4285714285714285,0.6000000000000001,0.2637755102040816,0.9979973297730308,0.5507749866381614,0.0714285714285714,0.0,0.5555555555555556,1.0,1.0,1.0,2
0.6486305945223781,0.0,0.92,1.0,0.0588235294117647,0.0,0.5483870967741935,0.4444444444444445,0.4166666666666666,0.7142857142857142,0.5,0.7408163265306124,0.8304405874499332,0.1948156066274719,0.5,0.611111111111111,0.2777777777777777,1.0,1.0,0.0,1
0.9599198396793588,1.0,0.0,1.0,0.2941176470588235,0.0,0.6774193548387097,0.4444444444444445,0.3416666666666667,0.1428571428571428,0.45,0.6627551020408163,0.9579439252336448,0.8661143773383216,0.9285714285714284,0.5555555555555556,0.8888888888888888,0.0,1.0,0.0,3
0.8977955911823647,1.0,0.0,1.0,0.5882352941176471,0.0,0.9516129032258064,0.2222222222222222,0.1333333333333334,0.0,0.6000000000000001,0.1489795918367347,0.130173564753004,0.3941742383752004,0.2857142857142857,0.2777777777777778,0.2222222222222222,0.0,0.0,0.0,1
0.1115564462257849,0.0,0.0,1.0,0.0,0.0,0.0161290322580645,0.0,0.6250000000000001,0.5714285714285714,0.65,0.3397959183673469,0.4692923898531375,0.6654195617316943,0.2857142857142857,0.2777777777777778,0.3333333333333333,1.0,1.0,1.0,2
0.6820307281229125,1.0,0.0799999999999999,1.0,0.2352941176470588,0.0,0.4193548387096774,0.1111111111111111,0.3666666666666666,0.0,0.25,0.4857142857142857,0.4612817089452603,0.2971672902191341,0.6428571428571429,0.2777777777777778,0.8333333333333333,1.0,0.0,1.0,1
0.5657982631930528,0.0,0.32,0.0,0.0,0.0,0.6612903225806451,0.3333333333333333,0.3,0.5714285714285714,0.3,0.1040816326530612,0.0006675567423231,0.977552111170497,0.3571428571428571,0.1666666666666666,0.3333333333333333,1.0,0.0,1.0,3
0.7007348029392118,1.0,0.8,0.0,0.3529411764705882,0.0,0.3064516129032257,0.7777777777777778,0.4416666666666667,0.1428571428571428,0.55,0.136734693877551,0.2216288384512683,0.5563869588455371,0.7857142857142857,0.0555555555555555,0.7222222222222221,0.0,1.0,0.0,2
0.6753507014028057,1.0,0.0,0.0,0.4705882352941176,1.0,0.2580645161290322,0.0,0.0666666666666666,0.2857142857142857,0.8500000000000001,0.5505102040816326,0.932576769025367,0.8955104222340994,0.5,0.5555555555555556,0.2222222222222222,1.0,1.0,1.0,3
0.6366065464261857,0.0,0.3599999999999999,1.0,0.4705882352941176,0.0,0.5645161290322581,0.7777777777777778,0.0,1.0,1.0,0.4607142857142857,0.2736982643524699,0.389363976483164,0.7857142857142857,0.0,0.9444444444444444,0.0,0.0,0.0,1
0.2050768203072812,0.0,0.72,0.0,0.1764705882352941,0.0,0.6935483870967742,0.7777777777777778,0.6749999999999999,0.0,0.45,0.2683673469387755,0.5500667556742322,0.8484767504008551,0.7142857142857143,0.3333333333333333,0.6111111111111112,0.0,1.0,1.0,3
0.1295925183700735,0.0,0.2799999999999999,0.0,0.0588235294117647,1.0,0.6290322580645161,0.3333333333333333,0.7416666666666666,1.0,0.4,0.4025510204081633,0.4746328437917222,0.5414216996258685,0.0,0.1111111111111111,0.8333333333333333,1.0,1.0,0.0,1
0.5778223112892452,1.0,0.0799999999999999,1.0,0.0,1.0,0.5161290322580645,0.0,0.5833333333333334,0.1428571428571428,0.45,0.2051020408163265,0.3097463284379171,0.8671833244254409,0.5714285714285714,0.611111111111111,0.0555555555555555,1.0,0.0,0.0,3
0.2979291917167669,0.0,0.12,1.0,0.0,1.0,0.3225806451612903,0.0,0.975,0.1428571428571428,0.65,0.6000000000000001,0.4806408544726301,0.6910742918225548,0.7857142857142857,0.6666666666666666,0.0,1.0,0.0,0.0,2
0.4054776219104877,0.0,0.2,0.0,0.1764705882352941,0.0,0.7580645161290323,0.6666666666666666,0.5000000000000001,0.5714285714285714,0.6000000000000001,0.6622448979591837,0.7783711615487316,0.801175841795831,0.5,0.0,0.7777777777777777,1.0,0.0,0.0,3
0.9665998663994656,0.0,0.96,1.0,0.2352941176470588,0.0,0.0483870967741935,0.1111111111111111,0.4666666666666667,0.0,0.65,0.3321428571428572,0.1335113484646194,0.0280598610368786,0.0714285714285714,0.0555555555555555,0.4444444444444445,0.0,1.0,0.0,0
0.0347361389445557,0.0,0.76,1.0,0.0588235294117647,1.0,0.0967741935483871,0.4444444444444445,0.3416666666666667,0.8571428571428572,0.15,0.1658163265306122,0.2683578104138852,0.2533404596472474,0.4285714285714286,0.2222222222222222,0.3333333333333333,1.0,1.0,1.0,0
0.3146292585170341,1.0,0.32,0.0,0.4705882352941176,0.0,0.6774193548387097,0.6666666666666666,0.0166666666666667,0.8571428571428572,0.5,0.1515306122448979,0.0594125500667556,0.9804917156600748,0.1428571428571429,0.3333333333333333,0.2777777777777777,0.0,1.0,0.0,3
0.1249164996659987,0.0,0.8,1.0,0.0,0.0,0.8870967741935484,0.7777777777777778,0.4249999999999999,0.8571428571428572,0.15,0.2173469387755102,0.9773030707610146,0.9323890967397112,0.8571428571428571,0.0555555555555555,0.1111111111111111,0.0,1.0,0.0,3
0.978623914495658,1.0,0.3599999999999999,1.0,0.1176470588235294,0.0,0.6129032258064516,0.8888888888888888,0.8750000000000001,1.0,0.9,0.6107142857142858,0.9926568758344458,0.2482629609834313,0.4285714285714286,0.1111111111111111,1.0,0.0,1.0,0.0,2
0.5230460921843688,1.0,0.92,1.0,0.0,0.0,0.1290322580645161,0.8888888888888888,0.6250000000000001,0.1428571428571428,0.7000000000000001,0.0816326530612245,0.0106809078771695,0.5187065740245858,0.7857142857142857,0.1111111111111111,0.3888888888888889,0.0,1.0,1.0,1
0.6653306613226453,1.0,0.16,1.0,0.2352941176470588,1.0,0.1290322580645161,0.0,0.6083333333333333,1.0,1.0,0.05,0.3184245660881174,0.9192944949225011,0.2857142857142857,0.0,0.0555555555555555,1.0,0.0,1.0,3
0.4415497661990648,0.0,0.6000000000000001,0.0,0.0,1.0,0.8709677419354839,0.6666666666666666,0.2833333333333333,0.8571428571428572,0.05,0.0285714285714285,0.3317757009345794,0.3730625334045964,0.0,0.0,1.0,1.0,0.0,0.0,1
0.0768203072812291,0.0,0.56,1.0,0.7647058823529411,1.0,0.6774193548387097,0.7777777777777778,0.0083333333333334,0.2857142857142857,0.8500000000000001,0.3321428571428572,0.746328437917223,0.8311063602351683,0.9285714285714284,0.4444444444444444,0.6111111111111112,1.0,1.0,0.0,3
0.3567134268537074,1.0,0.56,1.0,0.4705882352941176,0.0,0.1451612903225806,1.0,0.775,0.7142857142857142,0.5,0.4239795918367347,0.8070761014686247,0.4665954035275254,0.8571428571428571,0.4444444444444444,0.1666666666666666,1.0,1.0,0.0,1
0.4582498329993321,1.0,0.6800000000000002,0.0,0.0,1.0,0.7096774193548387,0.3333333333333333,0.5416666666666666,0.1428571428571428,0.45,0.5984693877551021,0.8771695594125499,0.9783538214858364,0.5714285714285714,0.611111111111111,0.3333333333333333,1.0,0.0,1.0,3
0.1148964595858383,1.0,0.48,1.0,0.1764705882352941,1.0,0.3225806451612903,0.0,0.0666666666666666,0.0,0.25,0.3030612244897959,0.3925233644859812,0.4794227685729556,0.1428571428571429,0.1111111111111111,0.8333333333333333,1.0,1.0,0.0,1
0.3380093520374082,1.0,0.96,1.0,0.2941176470588235,1.0,0.3064516129032257,0.7777777777777778,0.8750000000000001,1.0,0.6000000000000001,0.2443877551020408,0.2209612817089452,0.2792624265098877,0.2142857142857143,0.3333333333333333,0.5555555555555556,1.0,1.0,0.0,0
0.9151636606546428,1.0,0.6000000000000001,0.0,0.4117647058823529,1.0,0.2903225806451612,0.0,0.0083333333333334,0.8571428571428572,0.7000000000000001,0.0448979591836734,0.7890520694259011,0.5045430251202565,0.5714285714285714,0.6666666666666666,0.5555555555555556,1.0,1.0,1.0,2
0.2124248496993988,1.0,0.8,1.0,0.0,1.0,0.1451612903225806,0.1111111111111111,0.025,1.0,0.05,0.223469387755102,0.2149532710280374,0.2239444147514697,0.3571428571428571,0.2777777777777778,0.7222222222222221,1.0,0.0,0.0,0
0.8857715430861723,1.0,0.12,0.0,0.2352941176470588,0.0,0.9516129032258064,0.8888888888888888,0.4166666666666666,0.8571428571428572,0.45,0.1290816326530612,0.8437917222963951,0.651256012827365,0.2142857142857143,0.1666666666666666,0.2777777777777777,0.0,1.0,1.0,3
0.5597862391449566,1.0,0.72,1.0,0.0,0.0,0.6129032258064516,0.0,0.3583333333333333,0.1428571428571428,0.05,0.1081632653061224,0.5133511348464619,0.5681453768038481,0.0714285714285714,0.2222222222222222,0.2777777777777777,1.0,0.0,1.0,2
0.0013360053440213,1.0,0.52,1.0,0.0588235294117647,1.0,0.1774193548387096,0.6666666666666666,0.4249999999999999,0.0,0.2,0.7627551020408164,0.7930574098798397,0.7645644040619989,1.0,0.3333333333333333,0.3888888888888889,1.0,0.0,1.0,3
0.6472945891783568,1.0,0.48,1.0,0.3529411764705882,0.0,0.6935483870967742,0.0,0.3416666666666667,0.0,0.45,0.3964285714285714,0.3938584779706274,0.80251202565473,0.3571428571428571,0.0555555555555555,0.6666666666666665,1.0,0.0,1.0,3
0.1088844355377421,0.0,0.4000000000000001,0.0,0.2941176470588235,1.0,0.064516129032258,0.8888888888888888,0.7000000000000001,0.1428571428571428,0.95,0.5489795918367347,0.6488651535380507,0.9401389631213256,0.4285714285714286,0.2777777777777778,0.8888888888888888,1.0,0.0,0.0,3
0.9211756847027388,1.0,0.52,0.0,0.2352941176470588,1.0,0.2580645161290322,0.6666666666666666,0.4833333333333333,0.2857142857142857,0.25,0.0362244897959183,0.1328437917222963,0.822287546766435,0.8571428571428571,0.8333333333333333,0.2777777777777777,1.0,0.0,0.0,3
0.863059452237809,0.0,0.8800000000000001,0.0,0.7058823529411764,1.0,0.6774193548387097,0.6666666666666666,0.7916666666666666,0.5714285714285714,0.8500000000000001,0.3341836734693877,0.6401869158878505,0.6806520577231426,1.0,0.5,0.2222222222222222,1.0,1.0,1.0,3
0.4535738142952572,1.0,0.2799999999999999,0.0,0.2941176470588235,1.0,0.7741935483870968,1.0,0.5333333333333333,0.4285714285714285,1.0,0.4719387755102041,0.5020026702269693,0.3228220203099946,0.1428571428571429,0.1666666666666666,1.0,1.0,1.0,1.0,1
0.8904475617902472,0.0,0.6400000000000001,0.0,0.4117647058823529,1.0,0.6129032258064516,0.0,0.1583333333333333,0.4285714285714285,0.55,0.0,0.9926568758344458,0.918225547835382,0.5714285714285714,0.0,0.7777777777777777,1.0,1.0,0.0,3
0.0033400133600534,0.0,0.4400000000000001,0.0,0.3529411764705882,1.0,0.6290322580645161,0.7777777777777778,0.6583333333333333,0.0,0.35,0.4464285714285714,0.3504672897196261,0.7239444147514698,0.5714285714285714,0.5555555555555556,0.7222222222222221,1.0,0.0,0.0,2
0.995991983967936,1.0,0.4400000000000001,0.0,0.2941176470588235,1.0,0.8870967741935484,1.0,0.1666666666666667,0.1428571428571428,0.75,0.7918367346938776,0.7316421895861147,0.0935328701229289,0.2857142857142857,0.1666666666666666,0.1111111111111111,1.0,1.0,1.0,1
0.0073480293921175,1.0,0.0,1.0,0.4117647058823529,0.0,0.2096774193548387,0.8888888888888888,0.025,0.2857142857142857,0.75,0.1270408163265306,0.9005340453938584,0.6290753607696419,0.9285714285714284,0.7777777777777777,0.7222222222222221,0.0,1.0,1.0,2
0.0293921175684703,0.0,0.0,0.0,0.0,1.0,0.1451612903225806,0.2222222222222222,0.4249999999999999,0.2857142857142857,0.05,0.1943877551020408,0.6355140186915887,0.0962052378407268,0.7142857142857143,0.3333333333333333,0.9444444444444444,1.0,1.0,1.0,0
0.1055444221776887,0.0,0.3599999999999999,1.0,0.1176470588235294,1.0,0.0161290322580645,0.0,0.0416666666666667,1.0,0.3,0.096938775510204,0.1048064085447262,0.1900053447354355,0.3571428571428571,0.0555555555555555,0.6666666666666665,1.0,0.0,1.0,0
0.9118236472945892,1.0,0.8,1.0,0.1764705882352941,1.0,0.7258064516129032,0.7777777777777778,0.075,0.5714285714285714,0.45,0.1826530612244898,0.855807743658211,0.3174772848743987,0.1428571428571429,0.2222222222222222,1.0,1.0,0.0,0.0,1
0.1496325985303941,0.0,0.32,1.0,0.9411764705882352,0.0,0.935483870967742,0.3333333333333333,0.6666666666666666,1.0,0.8500000000000001,0.5785714285714286,0.5,0.2859433458043826,0.3571428571428571,0.2222222222222222,0.7222222222222221,1.0,0.0,0.0,1
0.1202404809619238,0.0,0.0,1.0,0.7058823529411764,1.0,0.2419354838709677,0.8888888888888888,0.95,0.5714285714285714,0.95,0.1892857142857143,0.8024032042723632,0.6125066809192945,0.0714285714285714,0.0555555555555555,0.1666666666666666,1.0,0.0,1.0,2
0.0414161656646626,1.0,0.0,1.0,0.1176470588235294,1.0,0.6290322580645161,0.8888888888888888,0.5416666666666666,0.5714285714285714,0.3,0.6443877551020408,0.8117489986648865,0.6272047033671833,0.4285714285714286,0.1111111111111111,0.3888888888888889,1.0,1.0,0.0,2
0.0227120908483633,0.0,0.56,0.0,0.2941176470588235,0.0,0.3548387096774194,0.1111111111111111,0.9166666666666666,1.0,0.95,0.2030612244897959,0.8511348464619493,0.0716194548369855,0.2857142857142857,0.1666666666666666,0.1111111111111111,0.0,0.0,0.0,0
0.676686706746827,1.0,0.3599999999999999,0.0,0.1764705882352941,1.0,0.1612903225806451,0.5555555555555555,0.4833333333333333,0.2857142857142857,0.2,0.1561224489795918,0.0253671562082776,0.2087119187600213,0.7142857142857143,0.1666666666666666,0.7222222222222221,1.0,0.0,1.0,0
0.2498329993319973,1.0,0.3599999999999999,1.0,0.0588235294117647,1.0,0.6612903225806451,0.5555555555555555,0.2,1.0,0.15,0.4602040816326531,0.3130841121495327,0.8391234633885623,0.6428571428571429,0.1111111111111111,0.8888888888888888,1.0,0.0,0.0,3
0.2277889111556447,1.0,0.52,1.0,0.2352941176470588,0.0,0.8870967741935484,1.0,0.3666666666666666,0.2857142857142857,0.5,0.1775510204081632,0.1535380507343123,0.4401389631213255,0.2142857142857143,0.2222222222222222,0.6666666666666665,0.0,1.0,0.0,1
0.3126252505010021,0.0,0.76,0.0,0.0,0.0,0.6935483870967742,0.2222222222222222,0.3666666666666666,0.8571428571428572,0.0,0.2505102040816326,0.0594125500667556,0.0395510422234099,0.9285714285714284,0.2777777777777778,0.9444444444444444,1.0,0.0,1.0,0
0.353373413493654,0.0,0.4400000000000001,1.0,0.1764705882352941,1.0,0.9032258064516128,0.1111111111111111,0.4833333333333333,0.7142857142857142,1.0,0.5668367346938776,0.8758344459279039,0.6953500801710315,0.0714285714285714,0.1111111111111111,0.8888888888888888,1.0,1.0,1.0,3
0.9311957247828992,0.0,0.0,0.0,0.1176470588235294,1.0,0.0483870967741935,0.6666666666666666,0.45,0.0,0.55,0.3698979591836735,0.5574098798397864,0.1384286477819347,0.7142857142857143,0.2222222222222222,0.2222222222222222,1.0,1.0,0.0,1
0.9859719438877756,1.0,0.6000000000000001,1.0,0.4117647058823529,1.0,0.8387096774193549,1.0,0.7583333333333334,0.8571428571428572,0.9,0.6255102040816327,0.4953271028037382,0.4583110636023516,0.9285714285714284,0.3888888888888888,0.6666666666666665,1.0,1.0,0.0,2
0.0454241816967267,1.0,0.8,1.0,0.0,0.0,0.6290322580645161,0.2222222222222222,0.3666666666666666,0.0,0.05,0.1979591836734694,0.0700934579439252,0.6400320684126135,0.8571428571428571,0.3888888888888888,0.1111111111111111,0.0,0.0,0.0,1
0.5090180360721444,1.0,0.6000000000000001,0.0,0.0,0.0,0.0483870967741935,0.3333333333333333,0.5499999999999999,0.7142857142857142,0.15,0.4867346938775511,0.7403204272363151,0.4548369855692142,0.2857142857142857,0.3333333333333333,0.1111111111111111,1.0,1.0,1.0,2
0.3179692718770875,1.0,0.92,1.0,0.1176470588235294,0.0,0.532258064516129,0.5555555555555555,0.7083333333333334,0.1428571428571428,0.75,0.766326530612245,0.9092122830440588,0.9241047568145376,1.0,0.1666666666666666,0.4444444444444445,0.0,1.0,1.0,3
0.863059452237809,0.0,0.52,1.0,0.5882352941176471,0.0,0.1612903225806451,0.4444444444444445,0.7416666666666666,0.7142857142857142,0.8500000000000001,0.5540816326530613,0.6128170894526035,0.8757349011223944,0.7857142857142857,0.7777777777777777,0.7222222222222221,1.0,1.0,1.0,3
0.5617902471609887,0.0,0.92,0.0,0.0588235294117647,0.0,0.7741935483870968,0.0,0.775,0.0,0.4,0.0647959183673469,0.0801068090787716,0.638161411010155,0.1428571428571429,0.1111111111111111,0.4999999999999999,0.0,1.0,1.0,2
0.0046760187040748,0.0,0.12,0.0,0.4117647058823529,1.0,0.6451612903225806,0.2222222222222222,0.1166666666666667,0.0,0.4,0.0198979591836734,0.0380507343124165,0.1087653661143773,0.5714285714285714,0.6666666666666666,0.2777777777777777,1.0,0.0,0.0,0
0.0267201068804275,0.0,0.2,0.0,0.0,1.0,0.1290322580645161,0.3333333333333333,0.3916666666666667,0.4285714285714285,0.0,0.9367346938775512,0.9165554072096128,0.203901656867985,1.0,0.5,0.7222222222222221,1.0,1.0,0.0,1
0.3039412157648631,0.0,0.56,1.0,0.0588235294117647,0.0,0.6451612903225806,0.0,0.4416666666666667,0.8571428571428572,0.55,0.2056122448979592,0.7436582109479306,0.9203634420096204,0.3571428571428571,0.0,0.2777777777777777,1.0,1.0,0.0,3
0.7975951903807617,1.0,0.0,1.0,0.1176470588235294,1.0,0.7258064516129032,0.4444444444444445,0.9083333333333332,0.5714285714285714,0.65,0.1571428571428571,0.472630173564753,0.3669160876536611,0.2142857142857143,0.3333333333333333,0.4999999999999999,1.0,1.0,0.0,1
0.614562458249833,0.0,0.92,0.0,0.0,1.0,0.8870967741935484,0.3333333333333333,0.7083333333333334,0.0,0.1,0.3984693877551021,0.7723631508678237,0.6731694281133084,0.5714285714285714,0.4444444444444444,0.6666666666666665,1.0,0.0,1.0,3
0.5103540414161657,0.0,0.4000000000000001,0.0,0.4117647058823529,0.0,0.7580645161290323,0.6666666666666666,0.85,0.5714285714285714,0.8,0.3520408163265306,0.2242990654205607,0.2955638695884554,0.0,0.0,0.5555555555555556,0.0,0.0,1.0,1
0.0420841683366733,0.0,0.52,1.0,0.0,1.0,0.7903225806451613,0.4444444444444445,0.7333333333333333,0.2857142857142857,0.05,0.4653061224489796,0.987983978638184,0.2185996793158738,0.6428571428571429,0.4444444444444444,0.7222222222222221,1.0,1.0,0.0,0
0.2865731462925852,1.0,0.2,1.0,0.2352941176470588,1.0,0.032258064516129,0.8888888888888888,0.5333333333333333,1.0,0.5,0.5188775510204082,0.5267022696929239,0.4703367183324425,0.5714285714285714,0.5555555555555556,0.7777777777777777,1.0,1.0,1.0,1
0.8583834335337341,0.0,0.2799999999999999,0.0,0.6470588235294118,0.0,0.9516129032258064,0.0,0.3583333333333333,0.2857142857142857,0.7000000000000001,0.0377551020408163,0.2436582109479305,0.7421165152324959,0.6428571428571429,0.611111111111111,0.8333333333333333,0.0,1.0,0.0,3
0.818303273213093,1.0,0.56,0.0,0.0588235294117647,1.0,0.6451612903225806,0.5555555555555555,0.2166666666666666,0.5714285714285714,0.15,0.6229591836734695,0.8704939919893191,0.4307856761090325,0.7857142857142857,0.3888888888888888,0.2222222222222222,1.0,0.0,0.0,2
0.4235136940547762,1.0,0.6000000000000001,1.0,0.0,0.0,0.7096774193548387,0.2222222222222222,0.025,0.0,0.2,0.1494897959183673,0.8985313751668891,0.7410475681453768,1.0,0.9444444444444444,0.3888888888888889,1.0,1.0,1.0,3
0.2164328657314629,0.0,0.0,1.0,0.0,1.0,0.3387096774193548,0.0,0.05,0.1428571428571428,0.0,0.1051020408163265,0.9459279038718292,0.8075895243185461,0.2142857142857143,0.3333333333333333,0.0,1.0,0.0,1.0,3
0.1249164996659987,1.0,0.8,0.0,0.5294117647058824,0.0,0.6129032258064516,0.1111111111111111,0.2416666666666667,0.5714285714285714,1.0,0.1918367346938775,0.9726301735647528,0.3009086050240512,0.5,0.3888888888888888,0.3333333333333333,0.0,1.0,0.0,1
0.3687374749498998,0.0,0.96,0.0,0.4117647058823529,0.0,0.6451612903225806,0.8888888888888888,0.3833333333333334,0.7142857142857142,0.8500000000000001,0.2137755102040816,0.5080106809078772,0.28941742383752,0.8571428571428571,0.0,0.6666666666666665,0.0,0.0,1.0,0
0.4235136940547762,1.0,0.92,1.0,0.5294117647058824,0.0,0.6612903225806451,0.3333333333333333,0.65,0.0,0.55,0.3520408163265306,0.7269692923898532,0.7878140032068413,0.9285714285714284,0.7222222222222222,0.2222222222222222,1.0,0.0,0.0,3
0.4609218436873747,0.0,0.12,0.0,0.3529411764705882,1.0,0.7096774193548387,0.7777777777777778,0.075,0.7142857142857142,0.45,0.0214285714285714,0.2049399198931909,0.1517904863709246,1.0,1.0,0.2777777777777777,1.0,0.0,0.0,0
0.1142284569138277,1.0,0.0399999999999999,1.0,0.7647058823529411,0.0,0.9516129032258064,0.0,0.95,0.5714285714285714,1.0,0.3693877551020408,0.4185580774365821,0.320951362907536,0.6428571428571429,0.5555555555555556,1.0,1.0,0.0,1.0,0
0.0681362725450901,0.0,0.4000000000000001,0.0,0.4705882352941176,0.0,0.1612903225806451,0.6666666666666666,0.2833333333333333,0.7142857142857142,1.0,0.5117346938775511,0.5233644859813084,0.3439337252805985,0.1428571428571429,0.2777777777777778,0.9444444444444444,1.0,1.0,0.0,1
0.3653974615898464,1.0,0.16,0.0,0.5882352941176471,1.0,0.4193548387096774,0.7777777777777778,0.95,0.1428571428571428,0.95,0.4928571428571429,0.9846461949265688,0.3212185996793159,0.0,0.0555555555555555,0.7222222222222221,1.0,0.0,1.0,1
0.6559786239144957,1.0,0.6800000000000002,0.0,0.1764705882352941,1.0,0.8225806451612904,0.6666666666666666,0.7416666666666666,0.5714285714285714,0.55,0.148469387755102,0.1008010680907877,0.3976483164083377,0.0714285714285714,0.1666666666666666,0.4444444444444445,1.0,0.0,0.0,1
0.2217768871075485,1.0,0.0399999999999999,1.0,0.0,1.0,0.4032258064516129,0.2222222222222222,0.5416666666666666,0.4285714285714285,0.1,0.3311224489795918,0.527369826435247,0.0881881346873329,1.0,0.4444444444444444,0.9444444444444444,1.0,0.0,1.0,0
0.6299265197060789,1.0,0.6400000000000001,0.0,0.5294117647058824,0.0,0.5806451612903226,0.3333333333333333,0.2,0.8571428571428572,0.8,0.3183673469387755,0.2783711615487316,0.9374665954035276,0.6428571428571429,0.5,0.4444444444444445,0.0,0.0,0.0,3
0.2231128924515698,0.0,0.12,1.0,0.1176470588235294,1.0,0.6451612903225806,0.7777777777777778,0.4,0.5714285714285714,0.9,0.2020408163265306,0.5861148197596795,0.6218599679315874,0.7142857142857143,0.1111111111111111,0.6111111111111112,1.0,1.0,1.0,2
0.2625250501002004,0.0,0.6400000000000001,1.0,0.9411764705882352,0.0,0.2258064516129032,0.6666666666666666,0.7333333333333333,1.0,1.0,0.1459183673469387,0.5340453938584779,0.834045964724746,0.0,0.0555555555555555,0.2222222222222222,1.0,1.0,1.0,2
0.0955243820975284,1.0,0.32,1.0,0.4117647058823529,1.0,0.4516129032258065,0.4444444444444445,0.2833333333333333,0.0,0.8,0.5816326530612246,0.7703604806408544,0.5681453768038481,0.2857142857142857,0.0,0.9444444444444444,1.0,0.0,1.0,2
0.3841015364061456,1.0,0.8400000000000001,0.0,0.1764705882352941,1.0,0.5806451612903226,0.6666666666666666,0.325,0.7142857142857142,0.4,0.0658163265306122,0.2770360480640854,0.169695350080171,0.9285714285714284,0.1666666666666666,0.3888888888888889,1.0,1.0,0.0,0
0.7661990647962593,0.0,0.0799999999999999,0.0,0.3529411764705882,1.0,1.0,0.7777777777777778,0.7500000000000001,0.4285714285714285,0.45,0.588265306122449,0.918558077436582,0.0946018172100481,0.2142857142857143,0.0555555555555555,0.2222222222222222,1.0,1.0,0.0,1
0.3466933867735471,1.0,0.0799999999999999,1.0,0.1764705882352941,1.0,0.4032258064516129,0.6666666666666666,0.4,0.4285714285714285,0.2,0.4688775510204082,0.6555407209612817,0.7878140032068413,0.9285714285714284,0.0555555555555555,0.3888888888888889,1.0,0.0,1.0,3
0.6219104876419507,1.0,0.48,1.0,0.3529411764705882,1.0,0.5967741935483871,0.2222222222222222,0.7000000000000001,0.4285714285714285,0.9,0.1066326530612245,0.2983978638184246,0.0662747194013896,0.6428571428571429,0.2222222222222222,0.4444444444444445,1.0,1.0,0.0,0
0.5537742150968604,0.0,0.16,0.0,0.3529411764705882,1.0,0.8064516129032258,0.7777777777777778,0.0333333333333333,0.4285714285714285,0.6000000000000001,0.2357142857142857,0.5367156208277704,0.805184393372528,1.0,0.3333333333333333,0.3333333333333333,1.0,1.0,0.0,3
0.0460921843687375,1.0,0.0,1.0,0.1176470588235294,0.0,0.1129032258064516,0.2222222222222222,0.2583333333333333,0.8571428571428572,0.25,0.6790816326530613,0.9459279038718292,0.910475681453768,0.6428571428571429,0.5555555555555556,0.6666666666666665,0.0,0.0,0.0,3
0.0501002004008016,0.0,0.2799999999999999,0.0,0.0588235294117647,0.0,0.4516129032258065,0.7777777777777778,0.6833333333333335,1.0,0.25,0.4321428571428571,0.2623497997329772,0.6798503474078033,0.4285714285714286,0.3333333333333333,0.7777777777777777,0.0,1.0,1.0,2
0.6058784235136941,1.0,0.8,0.0,0.1764705882352941,0.0,0.4838709677419355,0.0,0.5916666666666667,0.4285714285714285,0.3,0.4464285714285714,0.3217623497997329,0.7765900587920898,1.0,1.0,0.0555555555555555,1.0,0.0,0.0,3
0.0173680694722779,0.0,0.0799999999999999,1.0,0.2352941176470588,0.0,0.8225806451612904,0.8888888888888888,0.4,0.0,0.55,0.0341836734693877,0.9506008010680906,0.2795296632816675,0.5714285714285714,0.3888888888888888,0.6111111111111112,0.0,0.0,0.0,0
0.0895123580494322,1.0,0.0,1.0,0.1176470588235294,0.0,0.6451612903225806,0.3333333333333333,0.5750000000000001,0.2857142857142857,0.2,0.1530612244897959,0.3731642189586114,0.7260823089257081,0.5,0.2777777777777778,0.8888888888888888,0.0,0.0,1.0,2
0.991983967935872,0.0,0.0,0.0,0.4117647058823529,0.0,0.7903225806451613,0.3333333333333333,0.125,0.2857142857142857,0.45,0.1744897959183673,0.1829105473965286,0.7773917691074291,0.0,0.0,0.6111111111111112,1.0,0.0,0.0,3
0.820307281229125,1.0,0.6400000000000001,1.0,0.0588235294117647,0.0,0.1612903225806451,0.8888888888888888,0.8833333333333334,0.0,0.3,0.235204081632653,0.45260347129506,0.3375200427578834,0.2857142857142857,0.2222222222222222,0.1666666666666666,1.0,0.0,1.0,1
0.2812291249164997,0.0,0.4000000000000001,1.0,0.0588235294117647,1.0,0.532258064516129,0.8888888888888888,0.9,0.8571428571428572,0.75,0.5183673469387755,0.589452603471295,0.2429182255478353,1.0,0.3333333333333333,0.1111111111111111,1.0,1.0,1.0,0
0.7494989979959921,1.0,0.2799999999999999,0.0,0.3529411764705882,1.0,0.9516129032258064,0.8888888888888888,0.3333333333333333,0.8571428571428572,0.6000000000000001,0.8,0.8891855807743658,0.3351149118118652,0.5,0.5555555555555556,0.8333333333333333,1.0,1.0,0.0,2
0.1382765531062124,1.0,0.8800000000000001,1.0,0.0,1.0,0.9838709677419356,1.0,0.9583333333333334,1.0,0.35,0.0397959183673469,0.1028037383177569,0.5112239444147514,0.0714285714285714,0.2777777777777778,0.2777777777777777,1.0,1.0,1.0,1
0.837675350701403,1.0,0.32,0.0,0.0,1.0,0.3548387096774194,0.0,0.45,0.8571428571428572,0.1,0.1459183673469387,0.383845126835781,0.9836985569214324,0.2142857142857143,0.0555555555555555,0.2777777777777777,1.0,0.0,1.0,3
0.7755511022044088,0.0,0.0,0.0,0.0,1.0,0.9516129032258064,0.7777777777777778,0.3833333333333334,0.4285714285714285,0.65,0.0163265306122449,0.6735647530040052,0.9363976483164084,0.2857142857142857,0.2777777777777778,0.6111111111111112,1.0,1.0,1.0,3
0.7621910487641952,1.0,0.4400000000000001,1.0,0.0,0.0,0.0483870967741935,0.3333333333333333,0.1833333333333333,0.5714285714285714,0.1,0.8602040816326532,0.9272363150867824,0.2878140032068412,0.9285714285714284,0.0,0.0,0.0,0.0,1.0,2
0.1369405477621911,0.0,0.0,0.0,0.7647058823529411,1.0,0.467741935483871,0.0,0.2333333333333334,0.2857142857142857,0.95,0.2770408163265306,0.2923898531375166,0.5780331373597006,0.2142857142857143,0.3888888888888888,0.1111111111111111,1.0,0.0,1.0,1
0.0541082164328657,0.0,0.0,0.0,0.4705882352941176,0.0,0.4838709677419355,0.6666666666666666,0.2249999999999999,0.2857142857142857,0.55,0.5321428571428571,0.8024032042723632,0.7271512560128273,0.0714285714285714,0.0555555555555555,1.0,0.0,1.0,1.0,2
0.4328657314629259,1.0,0.6800000000000002,0.0,0.2352941176470588,0.0,0.4516129032258065,0.1111111111111111,0.2166666666666666,0.7142857142857142,0.25,0.8250000000000001,0.7843791722296394,0.9350614644575092,0.8571428571428571,0.7777777777777777,0.3333333333333333,1.0,0.0,0.0,3
0.2257849031396126,0.0,0.6000000000000001,1.0,0.0,0.0,0.1935483870967742,0.3333333333333333,0.7916666666666666,0.8571428571428572,0.15,0.2877551020408163,0.5947930574098798,0.956440406199893,0.7142857142857143,0.4444444444444444,0.4999999999999999,1.0,0.0,0.0,3
0.177688710754843,0.0,0.4000000000000001,0.0,0.2352941176470588,0.0,0.4193548387096774,0.6666666666666666,0.7916666666666666,0.4285714285714285,0.5,0.1755102040816326,0.67890520694259,0.0724211651523249,0.3571428571428571,0.0,0.7222222222222221,0.0,1.0,0.0,0
0.8109552438209753,1.0,0.0,1.0,0.0588235294117647,1.0,0.2580645161290322,0.0,0.1333333333333334,0.7142857142857142,0.15,0.3438775510204082,0.5841121495327103,0.6258685195082843,0.8571428571428571,0.1111111111111111,0.0555555555555555,1.0,0.0,0.0,3
0.2030728122912491,1.0,0.48,1.0,0.0,1.0,0.9032258064516128,0.8888888888888888,0.7333333333333333,0.2857142857142857,0.5,0.0413265306122449,0.6969292389853137,0.839390700160342,0.1428571428571429,0.3333333333333333,0.0,1.0,0.0,0.0,2
0.3393453573814295,1.0,0.2,1.0,0.1176470588235294,0.0,0.0,0.5555555555555555,0.1833333333333333,1.0,0.7000000000000001,0.4653061224489796,0.3624833110814419,0.3901656867985034,0.1428571428571429,0.2777777777777778,0.7222222222222221,0.0,0.0,0.0,1
0.0347361389445557,0.0,0.0,1.0,0.1176470588235294,1.0,0.3387096774193548,0.4444444444444445,0.325,0.2857142857142857,0.15,0.5066326530612245,0.67890520694259,0.7282202030999465,0.1428571428571429,0.1666666666666666,0.6666666666666665,1.0,0.0,0.0,2
0.8724114896459587,0.0,0.6000000000000001,1.0,0.0,1.0,0.1774193548387096,0.4444444444444445,0.6250000000000001,1.0,0.0,0.4948979591836735,0.3164218958611482,0.0179048637092463,0.2857142857142857,0.1666666666666666,0.0555555555555555,1.0,1.0,1.0,0
0.974615898463594,1.0,0.72,1.0,0.0588235294117647,1.0,0.9516129032258064,0.2222222222222222,0.05,0.8571428571428572,0.15,0.1045918367346938,0.5333778371161548,0.964457509353287,0.3571428571428571,0.3888888888888888,0.4999999999999999,1.0,0.0,0.0,3
0.4422177688710755,0.0,0.92,1.0,0.0,0.0,0.7580645161290323,0.5555555555555555,0.6250000000000001,0.1428571428571428,0.0,0.2653061224489796,0.1695594125500668,0.6712987707108498,1.0,0.1111111111111111,0.5555555555555556,0.0,0.0,1.0,2
0.4522378089512359,1.0,0.32,0.0,0.0,0.0,0.7580645161290323,0.5555555555555555,0.175,0.5714285714285714,0.0,0.2954081632653061,0.0640854472630173,0.602618920363442,0.0714285714285714,0.1666666666666666,0.8333333333333333,0.0,0.0,0.0,2
0.1589846359385437,1.0,0.72,1.0,0.1176470588235294,1.0,0.9032258064516128,0.0,0.0666666666666666,0.2857142857142857,0.2,0.536734693877551,0.6915887850467288,0.0585248530197755,0.1428571428571429,0.3333333333333333,0.2222222222222222,1.0,0.0,1.0,0
0.4201736806947228,1.0,0.8,0.0,0.2352941176470588,1.0,0.9032258064516128,0.0,0.4333333333333334,0.5714285714285714,0.7000000000000001,0.0448979591836734,0.5080106809078772,0.2036344200962052,0.8571428571428571,0.0555555555555555,0.7777777777777777,1.0,0.0,0.0,0
0.0287241148964595,1.0,0.0,1.0,0.1176470588235294,1.0,0.0806451612903225,0.1111111111111111,0.4083333333333333,0.5714285714285714,0.75,0.1158163265306122,0.0734312416555407,0.3792089791555317,0.5714285714285714,0.2222222222222222,0.8333333333333333,1.0,1.0,0.0,0
0.9004676018704076,1.0,0.72,0.0,0.4117647058823529,1.0,0.2096774193548387,0.3333333333333333,0.5333333333333333,0.5714285714285714,0.95,0.3091836734693878,0.4158878504672897,0.8527525387493319,0.6428571428571429,0.611111111111111,0.9444444444444444,1.0,0.0,1.0,3
0.3226452905811624,1.0,0.0,0.0,0.7647058823529411,1.0,0.6451612903225806,0.7777777777777778,0.15,0.8571428571428572,0.8500000000000001,0.5285714285714286,0.7416555407209613,0.1715660074826296,0.7857142857142857,0.4444444444444444,0.6111111111111112,1.0,1.0,0.0,0
0.1549766199064796,0.0,0.6400000000000001,0.0,0.2941176470588235,1.0,0.0806451612903225,0.1111111111111111,0.7833333333333333,0.8571428571428572,0.5,0.2270408163265306,0.6068090787716955,0.306520577231427,0.7142857142857143,0.4444444444444444,0.0,1.0,1.0,0.0,0
0.2765531062124249,0.0,0.6000000000000001,0.0,0.4705882352941176,1.0,0.467741935483871,0.2222222222222222,0.0916666666666666,0.2857142857142857,1.0,0.4464285714285714,0.5447263017356475,0.0326028861571352,0.4285714285714286,0.3333333333333333,0.3888888888888889,1.0,1.0,0.0,0
0.8824315297261189,0.0,0.2799999999999999,0.0,0.0,0.0,0.0967741935483871,0.1111111111111111,0.9583333333333334,0.7142857142857142,0.0,0.0877551020408163,0.2736982643524699,0.6202565473009085,0.2857142857142857,0.2777777777777778,0.3333333333333333,1.0,1.0,0.0,2
0.4495657982631931,1.0,0.16,0.0,0.4117647058823529,0.0,0.4516129032258065,1.0,0.5583333333333335,0.4285714285714285,1.0,0.3795918367346939,0.4966622162883845,0.1464457509353287,0.8571428571428571,0.7777777777777777,0.7777777777777777,0.0,1.0,1.0,0
0.6225784903139613,1.0,0.72,0.0,0.1176470588235294,1.0,0.0483870967741935,0.0,0.4083333333333333,0.5714285714285714,0.55,0.2142857142857143,0.1895861148197596,0.501336183858899,0.9285714285714284,0.8333333333333333,0.9444444444444444,1.0,0.0,1.0,1
0.5824983299933201,1.0,0.56,1.0,0.0588235294117647,1.0,0.4354838709677419,0.8888888888888888,0.5083333333333334,0.7142857142857142,0.6000000000000001,0.6224489795918368,0.5660881174899867,0.667022982362373,0.7142857142857143,0.1111111111111111,0.2777777777777777,1.0,1.0,1.0,3
0.7060788243152973,1.0,0.8,0.0,0.1176470588235294,1.0,0.4838709677419355,0.0,0.2833333333333333,0.5714285714285714,0.15,0.1642857142857143,0.5907877169559412,0.1662212720470336,0.7857142857142857,0.2777777777777778,0.8333333333333333,1.0,1.0,1.0,0
0.4515698062792251,0.0,0.16,0.0,0.0588235294117647,1.0,0.4354838709677419,0.3333333333333333,0.925,0.1428571428571428,0.4,0.0908163265306122,0.2550066755674232,0.0146980224478888,0.9285714285714284,0.2777777777777778,0.9444444444444444,1.0,0.0,0.0,0
0.5584502338009353,0.0,0.0,0.0,0.7647058823529411,0.0,0.467741935483871,0.7777777777777778,0.8833333333333334,0.1428571428571428,1.0,0.0244897959183673,0.096128170894526,0.5141635489043292,0.1428571428571429,0.2222222222222222,0.7777777777777777,1.0,0.0,1.0,1
0.4676018704074817,1.0,0.0,0.0,0.1176470588235294,0.0,0.1290322580645161,1.0,0.1583333333333333,0.8571428571428572,0.35,0.1561224489795918,0.0387182910547396,0.0638695884553714,0.7142857142857143,0.3333333333333333,0.6666666666666665,1.0,1.0,1.0,0
0.72812291249165,1.0,0.6800000000000002,0.0,0.1764705882352941,1.0,0.7580645161290323,0.3333333333333333,0.6166666666666666,0.7142857142857142,0.35,0.7061224489795919,0.9232309746328438,0.92116515232496,0.8571428571428571,0.3333333333333333,1.0,1.0,1.0,0.0,3
0.0394121576486306,0.0,0.0,1.0,0.8823529411764706,0.0,0.7741935483870968,0.2222222222222222,0.6583333333333333,0.1428571428571428,1.0,0.7387755102040817,0.7429906542056075,0.5061464457509353,0.9285714285714284,0.6666666666666666,0.4999999999999999,1.0,1.0,0.0,2
0.1469605878423514,1.0,0.8800000000000001,1.0,0.0588235294117647,1.0,0.2096774193548387,0.1111111111111111,0.1833333333333333,0.5714285714285714,0.9,0.3341836734693877,0.5040053404539385,0.8952431854623195,0.3571428571428571,0.0,0.1666666666666666,1.0,1.0,1.0,3
0.7274549098196395,0.0,0.56,1.0,0.1764705882352941,1.0,0.3064516129032257,1.0,0.6666666666666666,0.5714285714285714,0.9,0.4693877551020408,0.309078771695594,0.3861571352218065,0.4285714285714286,0.2222222222222222,0.1111111111111111,1.0,0.0,1.0,1
0.5143620574482298,1.0,0.0,0.0,0.7058823529411764,0.0,0.4838709677419355,0.0,0.275,0.8571428571428572,0.75,0.6887755102040817,0.9672897196261684,0.0505077498663816,0.7142857142857143,0.7777777777777777,0.6666666666666665,0.0,0.0,1.0,0
0.6432865731462927,0.0,0.0,1.0,0.0,1.0,0.2419354838709677,0.6666666666666666,0.6083333333333333,0.7142857142857142,0.4,0.213265306122449,0.5614152202937249,0.2728487439871726,0.5714285714285714,0.3333333333333333,0.9444444444444444,1.0,0.0,0.0,1
0.1957247828991316,1.0,0.0,1.0,0.0,1.0,0.0,0.7777777777777778,0.2166666666666666,0.7142857142857142,0.7000000000000001,0.6234693877551021,0.9279038718291056,0.1101015499732763,0.5714285714285714,0.2222222222222222,0.9444444444444444,1.0,1.0,0.0,0
0.1549766199064796,1.0,0.0399999999999999,1.0,0.0,0.0,0.9838709677419356,0.2222222222222222,0.2083333333333333,0.8571428571428572,0.5,0.4846938775510204,0.8271028037383177,0.1945483698556921,0.8571428571428571,0.2222222222222222,0.3888888888888889,1.0,0.0,1.0,0
0.6325985303941216,1.0,0.0,1.0,0.3529411764705882,1.0,0.6935483870967742,0.7777777777777778,0.4833333333333333,0.8571428571428572,0.55,0.2908163265306123,0.8170894526034713,0.8343132014965259,0.5714285714285714,0.611111111111111,0.0,1.0,1.0,1.0,3
0.4221776887107549,0.0,0.3599999999999999,0.0,0.1764705882352941,0.0,0.6451612903225806,0.0,0.9916666666666666,0.5714285714285714,0.6000000000000001,0.3724489795918367,0.6962616822429906,0.320951362907536,0.9285714285714284,0.6666666666666666,1.0,1.0,0.0,1.0,1
0.4635938543754175,0.0,0.6000000000000001,1.0,0.0588235294117647,1.0,0.3387096774193548,0.0,0.0166666666666667,0.4285714285714285,0.45,0.0831632653061224,0.4005340453938585,0.1934794227685729,0.5714285714285714,0.5,0.8333333333333333,1.0,0.0,0.0,0
0.8951235804943221,1.0,0.32,1.0,0.3529411764705882,0.0,0.1935483870967742,0.5555555555555555,0.725,1.0,0.4,0.3025510204081633,0.1148197596795727,0.547300908605024,0.1428571428571429,0.0555555555555555,0.8888888888888888,0.0,0.0,1.0,2
0.4936539746158985,0.0,0.4400000000000001,0.0,0.0,0.0,0.5967741935483871,0.0,0.5499999999999999,0.1428571428571428,0.45,0.7709183673469389,0.8384512683578105,0.8027792624265098,0.5714285714285714,0.0555555555555555,0.8333333333333333,0.0,0.0,1.0,3
0.9812959251837008,0.0,0.4400000000000001,1.0,0.6470588235294118,1.0,0.9032258064516128,0.2222222222222222,0.0,1.0,0.95,0.3336734693877551,0.2550066755674232,0.5654730090860502,0.6428571428571429,0.6666666666666666,0.0,1.0,1.0,0.0,2
0.4836339345357382,0.0,0.0799999999999999,1.0,0.3529411764705882,0.0,0.935483870967742,0.0,0.2249999999999999,0.1428571428571428,0.75,0.0051020408163265,0.7122830440587449,0.5791020844468199,0.8571428571428571,0.611111111111111,0.2222222222222222,1.0,0.0,0.0,2
0.3820975283901135,1.0,0.0,1.0,0.0,0.0,0.7903225806451613,0.4444444444444445,0.5416666666666666,0.8571428571428572,0.0,0.3520408163265306,0.2029372496662216,0.7087119187600213,0.0714285714285714,0.0,0.8888888888888888,0.0,1.0,0.0,2
0.9325317301269208,1.0,0.56,0.0,0.1176470588235294,1.0,0.8387096774193549,0.2222222222222222,0.6166666666666666,0.1428571428571428,0.35,0.3214285714285714,0.1588785046728971,0.0416889363976483,0.8571428571428571,0.611111111111111,0.0,1.0,0.0,0.0,0
0.8637274549098197,1.0,0.0,1.0,0.2941176470588235,1.0,0.8548387096774194,0.4444444444444445,0.05,0.8571428571428572,0.35,0.021938775510204,0.0847797062750333,0.0390165686798503,0.6428571428571429,0.3888888888888888,0.6666666666666665,1.0,0.0,1.0,0
0.4529058116232465,1.0,0.0,0.0,0.4117647058823529,1.0,0.4838709677419355,0.2222222222222222,0.85,0.1428571428571428,0.6000000000000001,0.0433673469387755,0.6348464619492656,0.0224478888295029,0.7857142857142857,0.2777777777777778,0.7777777777777777,1.0,0.0,0.0,0
0.2177688710754843,0.0,0.24,1.0,0.1176470588235294,1.0,0.2580645161290322,0.8888888888888888,0.6666666666666666,0.1428571428571428,0.8,0.2285714285714286,0.2142857142857143,0.3760021378941742,0.6428571428571429,0.0,0.8333333333333333,1.0,1.0,1.0,0
0.0080160320641282,0.0,0.56,0.0,0.4705882352941176,0.0,0.4032258064516129,0.3333333333333333,0.7833333333333333,1.0,0.65,0.1438775510204081,0.1401869158878504,0.8401924104756814,0.7857142857142857,0.3333333333333333,0.6111111111111112,0.0,1.0,1.0,2
0.7621910487641952,0.0,0.0,1.0,0.9411764705882352,1.0,0.0967741935483871,0.2222222222222222,0.7583333333333334,0.7142857142857142,0.8500000000000001,0.0658163265306122,0.2489986648865153,0.7290219134152859,0.5714285714285714,0.2222222222222222,0.8333333333333333,1.0,0.0,1.0,2
0.1195724782899131,1.0,0.76,0.0,0.7647058823529411,1.0,0.5161290322580645,0.3333333333333333,0.6416666666666667,0.1428571428571428,0.8500000000000001,0.35,0.6128170894526035,0.959112773917691,0.7142857142857143,0.0555555555555555,0.1111111111111111,1.0,1.0,1.0,3
0.1529726118904475,1.0,0.0,1.0,0.1764705882352941,1.0,0.4032258064516129,0.0,0.2666666666666667,0.5714285714285714,0.5,0.0316326530612244,0.2309746328437917,0.8997862105825761,0.2857142857142857,0.2222222222222222,0.7222222222222221,1.0,1.0,0.0,2
0.5551102204408819,0.0,0.12,1.0,0.1176470588235294,0.0,0.1451612903225806,0.4444444444444445,0.8916666666666667,0.1428571428571428,0.2,0.386734693877551,0.4439252336448598,0.274986638161411,0.0,0.0,0.3888888888888889,1.0,1.0,0.0,1
0.0160320641282565,1.0,0.0,1.0,0.2941176470588235,0.0,0.7903225806451613,0.4444444444444445,0.475,1.0,0.55,0.1336734693877551,0.725634178905207,0.4369321218599679,0.9285714285714284,0.1666666666666666,0.5555555555555556,0.0,1.0,0.0,1
0.1102204408817635,1.0,0.0,1.0,0.4117647058823529,1.0,0.8387096774193549,0.3333333333333333,0.0083333333333334,0.2857142857142857,0.65,0.0295918367346938,0.5694259012016021,0.2667022982362372,0.7142857142857143,0.5,0.3888888888888889,1.0,1.0,1.0,0
0.993987975951904,0.0,0.8,1.0,0.0,1.0,0.6290322580645161,0.7777777777777778,0.1166666666666667,0.2857142857142857,0.65,0.5612244897959184,0.6655540720961282,0.3765366114377338,0.8571428571428571,0.5,0.5555555555555556,1.0,1.0,1.0,2
0.3059452237808951,1.0,0.32,1.0,0.0,0.0,0.5483870967741935,0.3333333333333333,0.9666666666666668,0.5714285714285714,0.7000000000000001,0.6698979591836736,0.554739652870494,0.7528059861036878,1.0,0.0555555555555555,0.3333333333333333,1.0,1.0,1.0,3
0.2745490981963928,1.0,0.92,1.0,0.3529411764705882,1.0,0.7096774193548387,0.3333333333333333,0.0333333333333333,0.4285714285714285,0.55,0.5076530612244898,0.5407209612817089,0.1590058792089791,0.2142857142857143,0.2222222222222222,0.1111111111111111,1.0,1.0,1.0,0
0.0587842351369405,1.0,0.72,1.0,0.0588235294117647,0.0,0.9516129032258064,0.5555555555555555,0.6666666666666666,0.4285714285714285,0.5,0.2188775510204081,0.2102803738317756,0.4962586851950827,0.5714285714285714,0.3888888888888888,0.0,1.0,0.0,1.0,1
0.7468269873079494,1.0,0.16,0.0,0.1764705882352941,0.0,0.2903225806451612,0.8888888888888888,0.3083333333333333,0.7142857142857142,0.45,0.4147959183673469,0.4539385847797063,0.0555852485301977,0.1428571428571429,0.2777777777777778,0.7777777777777777,1.0,0.0,1.0,0
0.8149632598530394,1.0,0.0,1.0,0.2352941176470588,1.0,0.5,0.4444444444444445,0.4,0.4285714285714285,0.25,0.4443877551020408,0.3658210947930573,0.1205237840726883,1.0,0.1111111111111111,0.1666666666666666,1.0,1.0,1.0,0
0.2631930527722111,0.0,0.0,1.0,0.3529411764705882,0.0,0.2258064516129032,0.2222222222222222,0.7000000000000001,1.0,0.7000000000000001,0.0642857142857143,0.7176234979973297,0.7659005879208979,0.1428571428571429,0.0,0.1111111111111111,0.0,0.0,1.0,2
0.1462925851703407,1.0,0.3599999999999999,1.0,0.0,1.0,0.9516129032258064,0.5555555555555555,0.1333333333333334,0.8571428571428572,0.4,0.6872448979591838,0.823097463284379,0.6795831106360235,0.0,0.1666666666666666,0.7222222222222221,1.0,0.0,1.0,3
0.2979291917167669,1.0,0.0,0.0,0.0588235294117647,1.0,0.7903225806451613,0.0,0.5333333333333333,0.1428571428571428,0.75,0.098469387755102,0.2583444592790387,0.7105825761624799,0.8571428571428571,0.0555555555555555,0.2222222222222222,1.0,1.0,1.0,2
0.0761523046092184,1.0,0.0,1.0,0.4117647058823529,0.0,0.9032258064516128,0.4444444444444445,0.4166666666666666,0.5714285714285714,0.4,0.5209183673469389,0.973297730307076,0.4409406734366649,0.6428571428571429,0.2777777777777778,0.1666666666666666,1.0,0.0,0.0,1
0.8837675350701404,1.0,0.12,0.0,0.2352941176470588,1.0,0.2741935483870967,0.8888888888888888,0.525,0.1428571428571428,0.25,0.538265306122449,0.8264352469959946,0.5678781400320684,0.6428571428571429,0.0555555555555555,0.1666666666666666,1.0,0.0,0.0,2
0.3513694054776219,1.0,0.6800000000000002,0.0,0.0,0.0,0.9838709677419356,0.7777777777777778,0.1833333333333333,0.5714285714285714,0.2,0.0775510204081632,0.1428571428571428,0.3944414751469802,0.2142857142857143,0.2777777777777778,0.6111111111111112,0.0,1.0,1.0,1
0.7187708750835005,0.0,0.0,1.0,0.0,1.0,0.6451612903225806,0.2222222222222222,0.975,0.5714285714285714,0.2,0.5331632653061225,0.8257676902536715,0.4820951362907535,1.0,0.3333333333333333,0.5555555555555556,1.0,0.0,0.0,2
0.0721442885771543,0.0,0.0,0.0,0.1764705882352941,0.0,0.3870967741935484,0.2222222222222222,0.1083333333333333,0.4285714285714285,0.2,0.4785714285714286,0.9666221628838452,0.430251202565473,0.4285714285714286,0.5555555555555556,0.6666666666666665,1.0,1.0,1.0,1
0.0841683366733467,0.0,0.52,0.0,0.1176470588235294,0.0,0.2903225806451612,0.7777777777777778,0.5166666666666667,0.2857142857142857,0.4,0.1076530612244898,0.0046728971962616,0.17103153393907,0.8571428571428571,0.3333333333333333,0.6666666666666665,0.0,0.0,0.0,0
0.6466265865063461,0.0,0.48,1.0,0.6470588235294118,1.0,0.6774193548387097,0.4444444444444445,0.7416666666666666,0.1428571428571428,0.7000000000000001,0.2469387755102041,0.1408544726301735,0.3824158204168893,0.7142857142857143,0.2777777777777778,0.1666666666666666,1.0,1.0,1.0,1
0.991983967935872,1.0,0.0,1.0,0.4117647058823529,1.0,0.5967741935483871,0.0,0.075,0.8571428571428572,0.95,0.1280612244897959,0.0660881174899866,0.860502405130946,0.4285714285714286,0.4444444444444444,0.8333333333333333,1.0,1.0,0.0,3
0.4081496325985304,0.0,0.0,0.0,0.0,1.0,0.1612903225806451,0.8888888888888888,0.9166666666666666,0.4285714285714285,0.3,0.3964285714285714,0.4132176234979973,0.8140032068412613,0.4285714285714286,0.0,1.0,1.0,1.0,1.0,3
0.1529726118904475,0.0,0.4000000000000001,0.0,0.5294117647058824,0.0,0.1129032258064516,0.6666666666666666,0.35,0.4285714285714285,0.75,0.6994897959183675,0.7857142857142856,0.6763762693746659,0.3571428571428571,0.4444444444444444,0.2777777777777777,1.0,0.0,1.0,2
0.7521710086840347,0.0,0.16,1.0,0.5294117647058824,1.0,0.4838709677419355,0.0,0.8333333333333334,0.7142857142857142,0.8,0.0265306122448979,0.3885180240320427,0.7883484767504008,0.5,0.3333333333333333,0.7777777777777777,1.0,1.0,0.0,3
0.4188376753507015,1.0,0.3599999999999999,0.0,0.7058823529411764,0.0,0.8225806451612904,0.3333333333333333,0.0333333333333333,0.5714285714285714,0.7000000000000001,0.3107142857142857,0.5807743658210948,0.7284874398717263,0.6428571428571429,0.5,0.5555555555555556,1.0,1.0,0.0,3
0.7414829659318638,0.0,0.0,1.0,0.2352941176470588,1.0,0.4032258064516129,0.8888888888888888,0.9916666666666666,0.0,0.5,0.0831632653061224,0.3411214953271028,0.7541421699625868,0.7142857142857143,0.1111111111111111,0.2222222222222222,1.0,0.0,1.0,2
0.9044756179024718,0.0,0.0,0.0,0.2941176470588235,0.0,0.4838709677419355,0.5555555555555555,0.8916666666666667,1.0,0.9,0.1362244897959184,0.4412550066755674,0.982629609834313,0.1428571428571429,0.0,0.2777777777777777,1.0,0.0,1.0,3
0.8984635938543755,1.0,0.0399999999999999,0.0,0.0588235294117647,0.0,0.2741935483870967,0.6666666666666666,0.6583333333333333,0.0,0.1,0.0423469387755102,0.1822429906542055,0.2878140032068412,0.7142857142857143,0.3333333333333333,0.4999999999999999,0.0,1.0,1.0,1
0.9432197728790916,1.0,0.52,0.0,0.0,0.0,0.4354838709677419,0.5555555555555555,0.2583333333333333,0.5714285714285714,0.2,0.3443877551020408,0.1615487316421895,0.4722073757349011,0.8571428571428571,0.7222222222222222,0.3333333333333333,1.0,1.0,0.0,2
0.1169004676018704,0.0,0.6800000000000002,0.0,0.0588235294117647,1.0,0.5967741935483871,0.1111111111111111,0.0333333333333333,0.0,0.25,0.4408163265306123,0.3411214953271028,0.4831640833778727,0.5714285714285714,0.3888888888888888,0.2222222222222222,1.0,0.0,0.0,1
0.2618570474281897,0.0,0.8,1.0,0.0,0.0,0.8548387096774194,0.5555555555555555,0.8583333333333333,0.1428571428571428,0.05,0.2127551020408163,0.2977303070761015,0.7295563869588455,0.1428571428571429,0.0555555555555555,0.2222222222222222,0.0,1.0,1.0,2
0.8510354041416166,1.0,0.4000000000000001,0.0,0.1764705882352941,0.0,0.6290322580645161,0.0,0.6916666666666668,0.0,0.35,0.8331632653061225,0.9138851802403204,0.5577231427044361,1.0,0.7222222222222222,0.6666666666666665,1.0,1.0,1.0,3
0.5263861055444222,0.0,0.12,1.0,0.1764705882352941,1.0,0.2258064516129032,0.8888888888888888,0.6749999999999999,0.7142857142857142,0.8500000000000001,0.3637755102040816,0.903871829105474,0.7779262426509888,0.6428571428571429,0.4444444444444444,1.0,1.0,1.0,0.0,3
0.0601202404809619,1.0,0.0,1.0,0.0588235294117647,1.0,0.2258064516129032,0.8888888888888888,0.0833333333333333,0.7142857142857142,0.8500000000000001,0.4551020408163265,0.7363150867823764,0.932656333511491,0.0,0.0,0.1666666666666666,1.0,1.0,0.0,3
0.2451569806279225,1.0,0.16,0.0,0.2941176470588235,0.0,0.0483870967741935,0.3333333333333333,0.475,0.4285714285714285,0.35,0.0204081632653061,0.541388518024032,0.3375200427578834,0.5714285714285714,0.0,0.0,0.0,0.0,1.0,0
0.4255177020708083,0.0,0.24,0.0,0.2941176470588235,1.0,0.7419354838709677,0.5555555555555555,0.2416666666666667,0.2857142857142857,0.7000000000000001,0.1188775510204081,0.8524699599465955,0.478888295029396,0.0714285714285714,0.0,0.8888888888888888,1.0,1.0,1.0,2
0.7134268537074149,1.0,0.4400000000000001,1.0,0.2352941176470588,1.0,0.8387096774193549,0.8888888888888888,0.9166666666666666,0.4285714285714285,0.3,0.1892857142857143,0.110146862483311,0.9751469802244788,0.0714285714285714,0.1111111111111111,0.1111111111111111,1.0,0.0,0.0,3
0.5110220440881764,0.0,0.0,0.0,0.0,1.0,0.0483870967741935,0.0,0.125,0.7142857142857142,0.45,0.6964285714285715,0.7997329773030708,0.3824158204168893,0.4285714285714286,0.0,0.8888888888888888,1.0,0.0,0.0,2
0.8156312625250501,0.0,0.8400000000000001,0.0,0.4705882352941176,0.0,0.2580645161290322,0.7777777777777778,0.8083333333333335,0.1428571428571428,0.8,0.4413265306122449,0.8284379172229639,0.8057188669160876,0.6428571428571429,0.0,0.7222222222222221,1.0,0.0,1.0,3
0.5978623914495659,0.0,0.4000000000000001,1.0,0.0,1.0,0.6774193548387097,0.0,0.3166666666666666,0.7142857142857142,0.05,0.0882653061224489,0.8965287049399198,0.3019775521111705,0.1428571428571429,0.0555555555555555,0.3333333333333333,1.0,1.0,1.0,1
0.002004008016032,0.0,0.92,1.0,0.0,0.0,0.6129032258064516,0.4444444444444445,0.8166666666666668,0.2857142857142857,0.0,0.3193877551020408,0.4639519359145527,0.0571886691608765,0.0714285714285714,0.0,0.7777777777777777,1.0,0.0,0.0,0
0.3787575150300601,0.0,0.32,0.0,0.3529411764705882,1.0,0.8064516129032258,0.0,0.1416666666666667,1.0,0.35,0.5071428571428572,0.6675567423230975,0.3153393907001603,0.7857142857142857,0.0555555555555555,0.7222222222222221,1.0,0.0,0.0,1
0.8724114896459587,1.0,0.96,0.0,0.0,0.0,0.2258064516129032,0.1111111111111111,0.3750000000000001,0.2857142857142857,0.0,0.6229591836734695,0.6108144192256342,0.7121859967931586,0.2142857142857143,0.2777777777777778,0.8333333333333333,0.0,1.0,0.0,3
0.1336005344021376,1.0,0.0799999999999999,0.0,0.4117647058823529,0.0,0.2096774193548387,0.4444444444444445,0.6666666666666666,0.2857142857142857,0.55,0.5112244897959184,0.5046728971962616,0.4008551576696953,0.0714285714285714,0.1666666666666666,0.8333333333333333,1.0,1.0,1.0,1
0.0654642618570474,1.0,0.96,0.0,0.0,1.0,1.0,0.2222222222222222,0.8833333333333334,1.0,0.05,0.0525510204081632,0.0974632843791722,0.8391234633885623,0.0,0.1666666666666666,0.2777777777777777,1.0,0.0,0.0,2
0.4308617234468939,0.0,1.0000000000000002,0.0,0.2941176470588235,1.0,0.8870967741935484,0.3333333333333333,0.2583333333333333,0.5714285714285714,0.5,0.0372448979591836,0.055407209612817,0.0093532870122928,1.0,0.5,0.4999999999999999,1.0,1.0,1.0,0
0.2778891115564462,1.0,0.0,0.0,0.0588235294117647,1.0,0.467741935483871,0.4444444444444445,0.0666666666666666,0.7142857142857142,0.1,0.2158163265306122,0.2730307076101468,0.8466060929983965,1.0,0.1111111111111111,0.6111111111111112,1.0,1.0,0.0,3
0.9071476285905145,0.0,0.0,1.0,0.1764705882352941,0.0,0.3225806451612903,0.6666666666666666,0.7000000000000001,0.0,0.35,0.5122448979591837,0.7703604806408544,0.2167290219134152,0.8571428571428571,0.0555555555555555,0.4444444444444445,1.0,0.0,0.0,1
0.0948563794255177,1.0,0.0799999999999999,1.0,0.1764705882352941,1.0,0.3387096774193548,0.7777777777777778,0.6333333333333334,0.0,0.45,0.160204081632653,0.6008010680907877,0.4917156600748262,0.5714285714285714,0.3333333333333333,0.0,1.0,0.0,0.0,1
0.0253841015364061,0.0,0.4000000000000001,0.0,0.3529411764705882,1.0,0.3870967741935484,0.1111111111111111,0.475,0.7142857142857142,0.4,0.5729591836734694,0.8070761014686247,0.98663816141101,0.9285714285714284,0.611111111111111,0.7222222222222221,1.0,1.0,1.0,3
0.3246492985971945,0.0,0.32,1.0,0.0,1.0,0.9516129032258064,0.3333333333333333,0.2249999999999999,0.2857142857142857,0.45,0.2964285714285714,0.2136181575433912,0.990646712987707,0.2857142857142857,0.2222222222222222,1.0,1.0,0.0,1.0,3
0.7274549098196395,0.0,0.4000000000000001,1.0,0.7058823529411764,1.0,0.1935483870967742,0.4444444444444445,0.8916666666666667,0.4285714285714285,0.75,0.539795918367347,0.4065420560747663,0.689470871191876,0.0714285714285714,0.2777777777777778,0.1111111111111111,1.0,0.0,0.0,3
0.5457581830327322,0.0,0.56,1.0,0.0,1.0,0.1451612903225806,0.7777777777777778,0.9,0.1428571428571428,0.75,0.3510204081632653,0.7283044058744994,0.4072688401924104,0.5,0.5555555555555556,0.0,1.0,0.0,0.0,1
0.937875751503006,1.0,0.0,0.0,0.1764705882352941,1.0,0.064516129032258,0.4444444444444445,0.5916666666666667,0.0,0.25,0.4331632653061225,0.2656875834445927,0.3444681988241582,0.2857142857142857,0.2777777777777778,0.4444444444444445,1.0,1.0,0.0,1
0.7341349365397463,0.0,0.8,1.0,0.0588235294117647,0.0,0.2741935483870967,0.5555555555555555,0.0666666666666666,0.7142857142857142,0.45,0.4239795918367347,0.8097463284379172,0.2466595403527525,0.3571428571428571,0.1666666666666666,0.8888888888888888,0.0,0.0,1.0,1
0.8530394121576488,0.0,0.0,0.0,0.0,0.0,0.2096774193548387,0.4444444444444445,0.1833333333333333,0.2857142857142857,0.0,0.7372448979591837,0.9706275033377836,0.2560128273650454,0.0,0.0,0.6666666666666665,1.0,0.0,0.0,1
0.7501670006680028,1.0,0.8400000000000001,1.0,0.0,0.0,0.9032258064516128,1.0,1.0,0.2857142857142857,0.55,0.7806122448979592,0.8304405874499332,0.2659005879208979,0.5714285714285714,0.2222222222222222,0.8888888888888888,0.0,1.0,1.0,1
0.4529058116232465,1.0,0.12,0.0,0.0588235294117647,0.0,0.0483870967741935,0.8888888888888888,0.6166666666666666,0.5714285714285714,0.8500000000000001,0.4658163265306123,0.6201602136181575,0.0766969535008016,0.2142857142857143,0.3888888888888888,0.8888888888888888,0.0,0.0,1.0,0
0.3072812291249165,1.0,0.4000000000000001,1.0,0.5882352941176471,0.0,0.7903225806451613,0.2222222222222222,0.6,0.7142857142857142,0.8,0.2826530612244898,0.0807743658210947,0.7282202030999465,0.7142857142857143,0.3333333333333333,0.2777777777777777,1.0,1.0,1.0,2
0.3593854375417502,0.0,0.0399999999999999,0.0,0.2941176470588235,1.0,0.064516129032258,0.0,0.4666666666666667,0.7142857142857142,0.4,0.0316326530612244,0.0293724966622162,0.7899518973810795,0.7142857142857143,0.3888888888888888,0.2777777777777777,1.0,0.0,1.0,2
0.2338009352037409,0.0,0.0,0.0,0.1764705882352941,0.0,0.3064516129032257,0.3333333333333333,1.0,0.5714285714285714,0.35,0.5974489795918367,0.5093457943925234,0.0593265633351149,0.5,0.3888888888888888,0.4444444444444445,1.0,0.0,1.0,0
0.8423513694054776,1.0,0.8800000000000001,1.0,0.7647058823529411,1.0,0.3709677419354839,0.8888888888888888,0.9083333333333332,0.0,0.7000000000000001,0.1530612244897959,0.0180240320427236,0.4382683057188669,0.6428571428571429,0.5555555555555556,1.0,1.0,1.0,1.0,1
0.889111556446226,0.0,0.0799999999999999,0.0,0.1176470588235294,0.0,0.0,0.5555555555555555,0.0833333333333333,0.8571428571428572,0.3,0.0948979591836734,0.1028037383177569,0.7274184927846071,0.9285714285714284,0.3888888888888888,0.8888888888888888,0.0,0.0,0.0,2
0.1255845023380093,0.0,0.3599999999999999,0.0,0.1176470588235294,0.0,0.6935483870967742,0.4444444444444445,0.1916666666666666,0.5714285714285714,0.55,0.1306122448979592,0.2156208277703605,0.8896312132549438,0.3571428571428571,0.0555555555555555,0.4444444444444445,1.0,0.0,0.0,3
0.78623914495658,1.0,0.72,1.0,0.6470588235294118,0.0,0.0806451612903225,0.4444444444444445,0.9333333333333336,0.0,0.7000000000000001,0.213265306122449,0.843124165554072,0.0849812934259754,0.0,0.1666666666666666,0.9444444444444444,1.0,0.0,0.0,0
0.7615230460921845,0.0,0.24,0.0,0.3529411764705882,0.0,0.7419354838709677,0.6666666666666666,0.1416666666666667,1.0,0.35,0.1142857142857143,0.9973297730307076,0.3845537145911277,0.5714285714285714,0.3333333333333333,0.8333333333333333,1.0,0.0,1.0,2
0.5430861723446895,1.0,0.92,1.0,0.7647058823529411,1.0,0.0483870967741935,1.0,0.0583333333333333,0.4285714285714285,0.9,0.0418367346938775,0.0080106809078771,0.8431320149652591,0.8571428571428571,0.8888888888888888,0.8888888888888888,1.0,0.0,0.0,3
0.935871743486974,0.0,0.0,0.0,0.5882352941176471,0.0,0.1774193548387096,0.1111111111111111,0.6250000000000001,0.4285714285714285,0.55,0.3908163265306122,0.2516688918558077,0.182789951897381,0.6428571428571429,0.5555555555555556,0.7222222222222221,1.0,1.0,0.0,1
0.3520374081496327,1.0,0.92,0.0,0.0588235294117647,1.0,0.4516129032258065,0.0,0.9416666666666668,0.0,0.5,0.9188775510204082,0.9499332443257678,0.3121325494388027,0.9285714285714284,0.2222222222222222,0.6111111111111112,1.0,0.0,1.0,1
0.5711422845691383,1.0,0.0,1.0,0.0,0.0,0.532258064516129,0.7777777777777778,0.4249999999999999,0.0,0.95,0.3989795918367347,0.3010680907877169,0.853821485836451,0.0,0.1111111111111111,0.8333333333333333,1.0,1.0,1.0,3
0.2458249832999333,0.0,0.56,0.0,0.0,0.0,0.0,0.5555555555555555,0.975,0.8571428571428572,0.15,0.2647959183673469,0.0220293724966622,0.799839657936932,1.0,0.0,0.5555555555555556,0.0,0.0,1.0,2
0.1162324649298597,0.0,0.76,0.0,0.0588235294117647,0.0,0.6451612903225806,0.5555555555555555,0.8916666666666667,0.8571428571428572,0.1,0.2459183673469388,0.2496662216288384,0.7207375734901121,0.2857142857142857,0.2777777777777778,0.6111111111111112,1.0,1.0,0.0,2
0.9171676686706748,1.0,0.0399999999999999,0.0,0.0588235294117647,0.0,0.2741935483870967,0.7777777777777778,0.9333333333333336,0.1428571428571428,0.45,0.6316326530612245,0.6128170894526035,0.2570817744521646,0.7142857142857143,0.5555555555555556,0.8333333333333333,0.0,1.0,0.0,1
0.8877755511022045,1.0,0.0,0.0,0.2941176470588235,0.0,0.1935483870967742,0.7777777777777778,0.6666666666666666,0.7142857142857142,0.3,0.3943877551020408,0.5694259012016021,0.440673436664885,0.7857142857142857,0.1666666666666666,0.9444444444444444,1.0,1.0,1.0,2
0.6339345357381431,1.0,0.8800000000000001,1.0,0.5294117647058824,0.0,0.2741935483870967,0.5555555555555555,0.4249999999999999,0.0,0.8500000000000001,0.3607142857142857,0.9225634178905208,0.0852485301977551,0.7142857142857143,0.5,0.5555555555555556,0.0,0.0,0.0,0
0.220440881763527,1.0,0.0799999999999999,0.0,0.1176470588235294,1.0,0.967741935483871,0.6666666666666666,0.45,1.0,0.45,0.7561224489795919,0.6608811748998664,0.6191876002137894,0.7857142857142857,0.6666666666666666,0.8888888888888888,1.0,0.0,1.0,2
0.3360053440213761,0.0,0.4400000000000001,1.0,0.0,1.0,0.4516129032258065,1.0,0.6666666666666666,1.0,0.05,0.0316326530612244,0.0540720961281708,0.2020309994655264,0.1428571428571429,0.2222222222222222,0.6111111111111112,1.0,1.0,1.0,0
0.0527722110888443,1.0,0.6400000000000001,1.0,0.0,0.0,0.3548387096774194,0.3333333333333333,0.4583333333333333,0.4285714285714285,0.25,0.2061224489795918,0.2656875834445927,0.8842864778193479,0.5,0.611111111111111,0.3333333333333333,1.0,0.0,1.0,2
0.4168336673346694,1.0,0.8800000000000001,0.0,0.5882352941176471,0.0,0.3387096774193548,0.3333333333333333,0.3083333333333333,0.0,0.7000000000000001,0.3948979591836735,0.2930574098798397,0.3701229289150187,0.6428571428571429,0.4444444444444444,0.5555555555555556,1.0,1.0,0.0,1
0.8089512358049433,0.0,0.3599999999999999,0.0,0.0588235294117647,0.0,0.9838709677419356,0.4444444444444445,0.475,0.8571428571428572,0.6000000000000001,0.3811224489795918,0.417890520694259,0.9075360769641904,0.7857142857142857,0.0555555555555555,0.9444444444444444,1.0,0.0,0.0,3
0.4562458249833,0.0,0.4000000000000001,1.0,0.0588235294117647,1.0,0.7419354838709677,0.5555555555555555,0.925,0.0,0.3,0.2647959183673469,0.7189586114819759,0.8174772848743986,0.8571428571428571,0.3888888888888888,0.6666666666666665,1.0,1.0,1.0,3
0.7007348029392118,1.0,0.8800000000000001,0.0,0.1176470588235294,0.0,0.4838709677419355,0.0,0.3833333333333334,0.8571428571428572,0.25,0.7862244897959184,0.7469959946595461,0.3514163548904329,0.5,0.1666666666666666,0.6666666666666665,0.0,0.0,0.0,2
0.4622578490313962,1.0,0.72,0.0,0.4117647058823529,0.0,0.2903225806451612,1.0,0.65,0.8571428571428572,0.65,0.7357142857142858,0.9372496662216288,0.4548369855692142,0.1428571428571429,0.2777777777777778,0.0,1.0,0.0,0.0,2
0.9078156312625252,0.0,0.0,1.0,0.1176470588235294,1.0,0.8548387096774194,0.6666666666666666,0.025,0.7142857142857142,0.15,0.0994897959183673,0.1995994659546061,0.1122394441475146,0.7142857142857143,0.0,0.1111111111111111,1.0,0.0,1.0,0
0.7388109552438211,0.0,0.24,1.0,0.3529411764705882,1.0,0.2903225806451612,1.0,0.9333333333333336,0.1428571428571428,0.4,0.3959183673469388,0.3371161548731641,0.1680919294494922,0.4285714285714286,0.0555555555555555,0.6666666666666665,1.0,1.0,0.0,0
0.3560454241816968,0.0,0.8400000000000001,1.0,0.1176470588235294,1.0,0.6935483870967742,0.2222222222222222,0.9166666666666666,0.2857142857142857,0.2,0.0928571428571428,0.5293724966622163,0.1905398182789952,0.7142857142857143,0.0555555555555555,0.2777777777777777,1.0,0.0,0.0,0
0.8363393453573815,0.0,0.0,1.0,0.0,1.0,0.467741935483871,0.0,0.45,0.0,0.9,0.8112244897959184,0.9519359145527369,0.285408872260823,0.8571428571428571,0.0,0.8333333333333333,1.0,0.0,1.0,2
0.692050768203073,0.0,0.96,0.0,0.6470588235294118,1.0,0.7096774193548387,0.7777777777777778,0.65,0.4285714285714285,0.8500000000000001,0.35,0.5373831775700935,0.6950828433992516,0.8571428571428571,0.7777777777777777,0.0,1.0,1.0,1.0,3
0.4068136272545091,0.0,0.0399999999999999,0.0,0.0588235294117647,0.0,0.6451612903225806,0.8888888888888888,0.9333333333333336,0.5714285714285714,0.1,0.601530612244898,0.5086782376502003,0.0534473543559593,0.5,0.4444444444444444,0.8888888888888888,1.0,1.0,0.0,0
0.1115564462257849,0.0,0.72,0.0,0.1176470588235294,1.0,0.7419354838709677,0.2222222222222222,0.2833333333333333,0.0,0.95,0.0994897959183673,0.5287049399198932,0.252538749331908,0.6428571428571429,0.6666666666666666,0.1111111111111111,1.0,1.0,0.0,0
0.9124916499666,0.0,0.72,0.0,0.0,1.0,0.1129032258064516,0.0,0.925,0.7142857142857142,0.15,0.363265306122449,0.6288384512683578,0.1961517904863708,0.0714285714285714,0.0555555555555555,0.0,1.0,0.0,1.0,1
0.9826319305277222,0.0,0.96,0.0,0.5294117647058824,0.0,0.1935483870967742,0.3333333333333333,0.9666666666666668,0.8571428571428572,0.9,0.1494897959183673,0.30173564753004,0.2832709780865847,0.2142857142857143,0.0555555555555555,0.3333333333333333,1.0,1.0,0.0,1
0.6172344689378758,1.0,0.0399999999999999,0.0,0.0,1.0,0.5,0.4444444444444445,0.075,0.2857142857142857,0.1,0.2020408163265306,0.7663551401869158,0.939337252805986,0.3571428571428571,0.1666666666666666,0.3888888888888889,1.0,0.0,1.0,3
0.1676686706746827,0.0,0.0,1.0,0.0588235294117647,0.0,0.7419354838709677,0.6666666666666666,0.0583333333333333,0.8571428571428572,0.65,0.0836734693877551,0.1522029372496662,0.963121325494388,0.1428571428571429,0.2777777777777778,0.7777777777777777,0.0,0.0,0.0,3
0.0220440881763527,0.0,0.0,1.0,0.2352941176470588,0.0,0.0,0.1111111111111111,0.0416666666666667,0.5714285714285714,0.8,0.4647959183673469,0.4806408544726301,0.5905932656333511,0.0,0.1666666666666666,0.8888888888888888,0.0,1.0,1.0,2
0.8563794255177022,0.0,0.96,1.0,0.1176470588235294,0.0,0.6451612903225806,0.6666666666666666,0.2,0.7142857142857142,0.4,0.551530612244898,0.987316421895861,0.0350080171031533,0.6428571428571429,0.2777777777777778,0.0555555555555555,0.0,1.0,0.0,1
0.1596526386105544,0.0,0.52,0.0,0.0588235294117647,0.0,0.1612903225806451,0.1111111111111111,0.3583333333333333,0.0,0.55,0.4770408163265306,0.431909212283044,0.2268840192410475,0.1428571428571429,0.3333333333333333,0.9444444444444444,0.0,1.0,1.0,0
0.963927855711423,0.0,0.0399999999999999,1.0,0.5294117647058824,1.0,0.9193548387096774,0.1111111111111111,0.4333333333333334,0.8571428571428572,0.5,0.3234693877551021,0.3865153538050734,0.1370924639230358,1.0,0.7222222222222222,0.0555555555555555,1.0,0.0,1.0,0
0.7882431529726119,1.0,0.8,0.0,0.1176470588235294,0.0,0.1451612903225806,0.3333333333333333,0.65,0.1428571428571428,0.65,0.0994897959183673,0.4706275033377837,0.2314270443613041,0.5,0.3333333333333333,0.7777777777777777,0.0,1.0,1.0,0
0.2692050768203073,0.0,0.52,0.0,0.1764705882352941,1.0,0.532258064516129,0.3333333333333333,0.7333333333333333,0.2857142857142857,0.2,0.0214285714285714,0.0046728971962616,0.2950293960448957,0.7142857142857143,0.6666666666666666,0.4999999999999999,1.0,0.0,0.0,0
0.0354041416165665,1.0,0.32,0.0,0.0,0.0,0.1612903225806451,0.0,0.2083333333333333,0.7142857142857142,0.5,0.0433673469387755,0.2042723631508678,0.9374665954035276,0.3571428571428571,0.3888888888888888,0.1111111111111111,0.0,1.0,1.0,2
0.4128256513026053,0.0,0.0,1.0,0.0,1.0,0.3387096774193548,0.3333333333333333,0.7000000000000001,0.4285714285714285,0.05,0.4188775510204082,0.2770360480640854,0.872260823089257,0.1428571428571429,0.2222222222222222,0.2777777777777777,1.0,0.0,0.0,3
0.7501670006680028,0.0,0.4400000000000001,1.0,0.4705882352941176,0.0,0.4193548387096774,0.3333333333333333,0.5833333333333334,0.1428571428571428,0.5,0.351530612244898,0.1328437917222963,0.5924639230358096,0.7857142857142857,0.611111111111111,0.0,1.0,0.0,0.0,2
0.4241816967267869,1.0,0.4400000000000001,0.0,0.8823529411764706,0.0,0.4838709677419355,0.4444444444444445,0.5833333333333334,0.7142857142857142,0.95,0.4903061224489796,0.3538050734312417,0.78941742383752,0.3571428571428571,0.1666666666666666,0.3333333333333333,1.0,1.0,1.0,3
0.2758851035404142,1.0,0.0799999999999999,0.0,0.0588235294117647,1.0,0.935483870967742,0.8888888888888888,0.9833333333333332,0.5714285714285714,0.2,0.3775510204081633,0.226969292389853,0.9299839657936932,0.6428571428571429,0.4444444444444444,0.1666666666666666,1.0,0.0,0.0,3
0.6826987307949233,1.0,0.76,0.0,0.2941176470588235,1.0,0.8870967741935484,0.1111111111111111,0.3083333333333333,0.1428571428571428,0.3,0.1260204081632653,0.0260347129506007,0.9927846071619456,0.9285714285714284,0.6666666666666666,0.4444444444444445,1.0,1.0,1.0,3
0.0828323313293253,1.0,0.2799999999999999,1.0,0.2941176470588235,1.0,0.1290322580645161,0.1111111111111111,0.8583333333333333,0.4285714285714285,0.4,0.3239795918367347,0.2283044058744993,0.819615179048637,0.2857142857142857,0.0555555555555555,0.2777777777777777,1.0,1.0,1.0,2
0.3967935871743487,1.0,0.0,0.0,0.2352941176470588,0.0,0.6935483870967742,0.4444444444444445,0.975,0.0,0.25,0.0913265306122449,0.4986648865153538,0.0812399786210582,0.2857142857142857,0.0555555555555555,0.4444444444444445,1.0,1.0,0.0,0
0.2137608550434202,0.0,0.52,1.0,0.2941176470588235,0.0,0.8387096774193549,0.0,0.2416666666666667,0.2857142857142857,0.45,0.1290816326530612,0.8584779706275032,0.782736504543025,0.2142857142857143,0.2222222222222222,0.7222222222222221,1.0,0.0,0.0,2
0.8557114228456915,1.0,0.92,1.0,0.3529411764705882,1.0,0.9032258064516128,0.7777777777777778,0.6416666666666667,0.0,0.65,0.4423469387755102,0.3331108144192256,0.5742918225547835,0.7142857142857143,0.0,0.7777777777777777,1.0,0.0,1.0,2
0.8363393453573815,0.0,0.2799999999999999,0.0,0.4705882352941176,1.0,0.1612903225806451,0.8888888888888888,0.275,0.8571428571428572,0.8500000000000001,0.1974489795918367,0.7309746328437916,0.3177445216461785,0.8571428571428571,0.8888888888888888,0.5555555555555556,1.0,1.0,1.0,1
0.1476285905143621,0.0,0.24,0.0,0.7058823529411764,0.0,0.1612903225806451,1.0,0.1083333333333333,0.7142857142857142,1.0,0.0704081632653061,0.5814419225634179,0.5619989310529129,0.5714285714285714,0.3333333333333333,0.0555555555555555,0.0,0.0,0.0,1
0.9993319973279896,1.0,0.52,1.0,0.0588235294117647,0.0,0.6129032258064516,0.4444444444444445,0.8750000000000001,0.4285714285714285,0.4,0.4418367346938776,0.4753004005340453,0.3738642437199358,0.1428571428571429,0.3333333333333333,0.7222222222222221,1.0,0.0,0.0,2
0.6633266533066133,0.0,0.4400000000000001,1.0,0.2352941176470588,1.0,0.3548387096774194,0.1111111111111111,0.175,0.0,0.8500000000000001,0.4994897959183674,0.4606141522029372,0.8973810796365579,0.7142857142857143,0.6666666666666666,0.3888888888888889,1.0,0.0,0.0,3
0.434869739478958,1.0,0.6400000000000001,1.0,0.0,1.0,0.3870967741935484,0.2222222222222222,0.0166666666666667,0.1428571428571428,0.0,0.6653061224489797,0.7830440587449934,0.809192944949225,0.7142857142857143,0.1111111111111111,0.3333333333333333,1.0,0.0,1.0,3
0.5450901803607215,0.0,0.52,1.0,0.1176470588235294,0.0,0.6612903225806451,0.4444444444444445,0.275,0.5714285714285714,0.15,0.0913265306122449,0.0754339118825099,0.849812934259754,0.7857142857142857,0.7222222222222222,0.1666666666666666,0.0,1.0,1.0,3
0.5951903807615231,0.0,0.8,0.0,0.0,1.0,0.6774193548387097,0.6666666666666666,0.275,0.4285714285714285,0.1,0.2459183673469388,0.3991989319092123,0.273650454302512,0.2142857142857143,0.0555555555555555,0.7777777777777777,1.0,0.0,1.0,1
0.2865731462925852,1.0,0.32,1.0,0.0588235294117647,1.0,0.1935483870967742,0.3333333333333333,0.1416666666666667,0.7142857142857142,0.5,0.0392857142857142,0.3504672897196261,0.5881881346873329,0.4285714285714286,0.3888888888888888,0.8333333333333333,1.0,1.0,0.0,1
0.293253173012692,0.0,0.96,0.0,0.0,0.0,0.2258064516129032,0.6666666666666666,0.2916666666666667,0.4285714285714285,0.05,0.2545918367346939,0.3938584779706274,0.5173703901656868,0.7142857142857143,0.7222222222222222,0.3888888888888889,1.0,1.0,1.0,1
0.7194388777555112,0.0,0.56,1.0,0.1176470588235294,1.0,0.5645161290322581,0.0,0.4833333333333333,0.4285714285714285,0.95,0.2096938775510204,0.4846461949265687,0.5884553714591128,1.0,0.8888888888888888,0.0555555555555555,1.0,0.0,1.0,2
0.9699398797595192,1.0,0.6400000000000001,1.0,0.4117647058823529,0.0,0.8709677419354839,0.0,0.65,1.0,0.45,0.2831632653061224,0.1762349799732977,0.5553180117584179,0.4285714285714286,0.2777777777777778,0.1111111111111111,1.0,0.0,0.0,2
0.0113560454241817,1.0,0.76,0.0,0.0,1.0,0.967741935483871,0.5555555555555555,0.4,0.7142857142857142,0.0,0.2494897959183673,0.1401869158878504,0.6034206306787814,0.7857142857142857,0.6666666666666666,0.2777777777777777,1.0,1.0,1.0,1
0.6773547094188377,1.0,0.6400000000000001,1.0,0.2352941176470588,1.0,0.3548387096774194,0.8888888888888888,0.7999999999999999,0.5714285714285714,0.3,0.3811224489795918,0.4986648865153538,0.7610903260288615,0.0714285714285714,0.2777777777777778,1.0,1.0,0.0,0.0,3
0.4876419505678023,0.0,0.2799999999999999,1.0,0.2941176470588235,0.0,0.8387096774193549,0.7777777777777778,0.8750000000000001,0.2857142857142857,0.5,0.3224489795918367,0.4566088117489986,0.4024585783003741,0.0,0.1666666666666666,0.2222222222222222,1.0,1.0,0.0,1
0.85437541750167,1.0,0.0,0.0,0.3529411764705882,0.0,0.4032258064516129,0.0,0.9166666666666666,0.4285714285714285,0.55,0.6790816326530613,0.6428571428571428,0.6734366648850881,1.0,0.9444444444444444,0.6666666666666665,1.0,1.0,1.0,3
0.7181028724114897,0.0,0.8400000000000001,0.0,0.4117647058823529,0.0,0.9032258064516128,0.1111111111111111,0.0833333333333333,0.2857142857142857,0.8,0.2040816326530612,0.0874499332443257,0.0213789417423837,0.6428571428571429,0.4444444444444444,0.6111111111111112,1.0,1.0,1.0,0
0.8189712758851035,1.0,0.6400000000000001,1.0,0.5882352941176471,0.0,0.8870967741935484,0.2222222222222222,0.65,0.7142857142857142,0.9,0.1918367346938775,0.5260347129506008,0.068412613575628,0.0,0.1111111111111111,0.2222222222222222,0.0,0.0,0.0,0
0.7815631262525051,0.0,0.0,1.0,0.7647058823529411,0.0,0.0483870967741935,0.8888888888888888,0.8250000000000001,1.0,0.9,0.2030612244897959,0.5093457943925234,0.1493853554249064,0.7857142857142857,0.3333333333333333,0.4444444444444445,1.0,1.0,1.0,0
0.1803607214428858,0.0,0.96,0.0,0.1176470588235294,0.0,0.967741935483871,0.6666666666666666,0.2166666666666666,0.0,0.4,0.8719387755102042,0.8551401869158879,0.3666488508818813,0.2857142857142857,0.1666666666666666,0.2222222222222222,0.0,1.0,0.0,1
0.4582498329993321,0.0,0.72,0.0,0.0,1.0,0.3064516129032257,0.1111111111111111,0.35,0.7142857142857142,0.3,0.1096938775510204,0.4172229639519359,0.6122394441475146,0.3571428571428571,0.1666666666666666,0.1666666666666666,1.0,1.0,0.0,2
0.1843687374749499,1.0,0.8400000000000001,0.0,0.1764705882352941,0.0,0.4516129032258065,0.8888888888888888,0.5666666666666668,0.5714285714285714,0.8500000000000001,0.0964285714285714,0.4292389853137516,0.9700694815606627,0.6428571428571429,0.5555555555555556,0.2777777777777777,1.0,0.0,0.0,3
0.8997995991983969,0.0,0.32,1.0,0.4117647058823529,0.0,0.1612903225806451,0.0,0.8166666666666668,0.1428571428571428,0.95,0.0994897959183673,0.0220293724966622,0.9778193479422768,0.2857142857142857,0.3888888888888888,0.3333333333333333,0.0,0.0,1.0,3
0.0567802271209085,1.0,0.0399999999999999,0.0,0.9411764705882352,1.0,0.6451612903225806,0.2222222222222222,0.3416666666666667,0.8571428571428572,0.8500000000000001,0.4005102040816327,0.4125500667556742,0.4310529128808124,0.5,0.1111111111111111,0.2777777777777777,1.0,1.0,1.0,1
0.1382765531062124,0.0,0.56,0.0,0.0,0.0,0.3870967741935484,0.2222222222222222,0.3,0.8571428571428572,0.05,0.1051020408163265,0.0801068090787716,0.3107963655799037,0.3571428571428571,0.3333333333333333,0.7777777777777777,1.0,1.0,1.0,0
0.0621242484969939,0.0,0.12,0.0,0.1176470588235294,1.0,0.4193548387096774,0.0,0.4333333333333334,0.5714285714285714,0.15,0.5158163265306123,0.5093457943925234,0.756547300908605,0.7857142857142857,0.2222222222222222,0.1111111111111111,1.0,1.0,1.0,2
0.1763527054108217,1.0,0.8,0.0,0.1764705882352941,0.0,0.6774193548387097,0.2222222222222222,0.0666666666666666,1.0,0.55,0.6959183673469388,0.9018691588785046,0.5344735435595938,0.0714285714285714,0.0555555555555555,0.9444444444444444,0.0,1.0,1.0,2
0.6740146960587843,0.0,0.0399999999999999,1.0,0.0588235294117647,0.0,0.4838709677419355,0.6666666666666666,0.4583333333333333,0.2857142857142857,0.4,0.4913265306122449,0.6809078771695594,0.1598075895243185,0.2142857142857143,0.1111111111111111,0.4444444444444445,1.0,0.0,1.0,1
0.1783567134268537,1.0,0.16,0.0,0.9411764705882352,1.0,0.8709677419354839,0.0,0.275,0.0,1.0,0.213265306122449,0.0100133511348464,0.1859967931587386,1.0,0.1666666666666666,0.7777777777777777,1.0,0.0,1.0,0
0.3981295925183701,0.0,0.6400000000000001,1.0,0.3529411764705882,0.0,1.0,0.1111111111111111,0.6749999999999999,0.2857142857142857,0.4,0.2137755102040816,0.9439252336448598,0.3925708177445216,0.6428571428571429,0.2777777777777778,0.3888888888888889,1.0,0.0,1.0,1
0.5003340013360054,1.0,0.4000000000000001,0.0,0.8235294117647058,1.0,0.2903225806451612,0.3333333333333333,0.725,0.5714285714285714,0.9,0.0056122448979591,0.3471295060080106,0.8172100481026189,0.0714285714285714,0.2777777777777778,0.2222222222222222,1.0,1.0,1.0,2
0.6753507014028057,1.0,0.0,0.0,0.0588235294117647,0.0,0.8064516129032258,0.0,0.4249999999999999,0.0,0.7000000000000001,0.1698979591836734,0.30173564753004,0.7338321753073223,0.0714285714285714,0.2777777777777778,0.2777777777777777,0.0,0.0,1.0,2
0.7989311957247829,1.0,0.0799999999999999,0.0,0.0588235294117647,1.0,0.5161290322580645,0.0,0.125,0.0,0.15,0.1204081632653061,0.5100133511348465,0.9206306787814004,0.7142857142857143,0.5,0.3333333333333333,1.0,1.0,0.0,3
0.7227788911155646,0.0,0.2799999999999999,1.0,0.0,0.0,0.1935483870967742,0.1111111111111111,0.5666666666666668,0.1428571428571428,0.2,0.5974489795918367,0.7830440587449934,0.5991448423303046,0.5714285714285714,0.3333333333333333,0.3333333333333333,0.0,0.0,1.0,2
0.6700066800267201,0.0,0.72,1.0,0.0588235294117647,0.0,1.0,0.8888888888888888,0.85,0.0,0.1,0.0096938775510204,0.9499332443257678,0.7490646712987706,0.0714285714285714,0.2777777777777778,0.4444444444444445,0.0,1.0,0.0,3
0.4949899799599199,1.0,0.76,0.0,0.4705882352941176,0.0,0.4193548387096774,0.1111111111111111,0.7166666666666667,0.4285714285714285,0.45,0.1607142857142857,0.8651535380507342,0.0165686798503474,0.4285714285714286,0.5555555555555556,0.9444444444444444,1.0,0.0,0.0,0
0.6633266533066133,0.0,0.76,0.0,0.3529411764705882,1.0,0.0161290322580645,0.8888888888888888,0.1083333333333333,0.8571428571428572,0.8500000000000001,0.4816326530612245,0.335781041388518,0.2544094067343666,0.6428571428571429,0.7222222222222222,0.8333333333333333,1.0,1.0,0.0,1
0.8283233132932533,1.0,0.0,0.0,0.0588235294117647,1.0,0.8548387096774194,0.0,0.5000000000000001,0.5714285714285714,0.15,0.3668367346938775,0.1702269692923897,0.619722073757349,0.5714285714285714,0.5555555555555556,0.2777777777777777,1.0,1.0,1.0,2
0.1983967935871744,0.0,0.0399999999999999,1.0,0.3529411764705882,1.0,0.3064516129032257,0.4444444444444445,0.25,0.1428571428571428,0.6000000000000001,0.3372448979591837,0.9686248331108144,0.3717263495456974,0.5,0.1111111111111111,0.0555555555555555,1.0,0.0,0.0,1
0.2531730126920508,0.0,0.48,0.0,0.1176470588235294,0.0,0.064516129032258,0.5555555555555555,0.9833333333333332,0.4285714285714285,0.95,0.3224489795918367,0.1068090787716956,0.7349011223944414,0.0714285714285714,0.2222222222222222,0.0555555555555555,1.0,0.0,0.0,2
0.8229792919171677,1.0,0.92,0.0,0.1764705882352941,1.0,0.5483870967741935,1.0,0.325,0.7142857142857142,1.0,0.1821428571428571,0.0180240320427236,0.8872260823089256,0.8571428571428571,0.8888888888888888,0.3888888888888889,1.0,0.0,0.0,3
0.3126252505010021,0.0,0.52,1.0,0.1176470588235294,1.0,0.6774193548387097,0.5555555555555555,0.65,0.2857142857142857,0.35,0.085204081632653,0.2730307076101468,0.1028861571352218,0.2857142857142857,0.0555555555555555,0.3333333333333333,1.0,0.0,1.0,0
0.3687374749498998,1.0,0.12,1.0,0.4117647058823529,1.0,0.6935483870967742,0.2222222222222222,0.1916666666666666,0.0,0.6000000000000001,0.3030612244897959,0.8457943925233644,0.7562800641368251,0.8571428571428571,0.3333333333333333,0.1666666666666666,1.0,1.0,1.0,3
0.5103540414161657,0.0,0.0399999999999999,1.0,0.2352941176470588,1.0,0.7580645161290323,0.4444444444444445,0.0833333333333333,0.0,0.25,0.1403061224489796,0.1248331108144192,0.3372528059861036,0.7857142857142857,0.611111111111111,0.3333333333333333,1.0,0.0,1.0,1
0.5704742818971277,0.0,0.72,0.0,0.5882352941176471,1.0,0.3387096774193548,0.1111111111111111,0.4333333333333334,0.5714285714285714,0.8,0.3321428571428572,0.2610146862483311,0.1667557455905932,1.0,0.2222222222222222,0.3333333333333333,1.0,1.0,0.0,0
0.4362057448229793,0.0,0.24,1.0,0.1176470588235294,1.0,0.0483870967741935,0.1111111111111111,0.15,0.0,0.65,0.275,0.493991989319092,0.3244254409406734,0.5,0.0,0.5555555555555556,1.0,0.0,0.0,1
0.809619238476954,0.0,1.0000000000000002,1.0,0.2941176470588235,1.0,0.2903225806451612,0.8888888888888888,0.2,0.8571428571428572,0.8500000000000001,0.1209183673469387,0.260347129506008,0.1910742918225547,0.4285714285714286,0.5555555555555556,0.4444444444444445,1.0,0.0,0.0,0
0.4515698062792251,0.0,0.16,0.0,0.0588235294117647,0.0,0.1451612903225806,1.0,0.8416666666666667,0.4285714285714285,0.35,0.4821428571428572,0.9499332443257678,0.4358631747728487,0.2142857142857143,0.2777777777777778,0.4999999999999999,1.0,1.0,1.0,1
0.8650634602538412,0.0,0.4400000000000001,1.0,0.2941176470588235,0.0,0.0806451612903225,0.0,0.175,0.4285714285714285,0.3,0.3403061224489796,0.198931909212283,0.3703901656867985,0.2857142857142857,0.2222222222222222,0.0555555555555555,0.0,1.0,1.0,1
0.9198396793587176,0.0,0.4000000000000001,1.0,0.2941176470588235,1.0,0.8709677419354839,0.2222222222222222,0.4916666666666666,0.5714285714285714,0.65,0.0933673469387755,0.0393858477970627,0.6560662747194014,0.2142857142857143,0.1111111111111111,0.0555555555555555,1.0,1.0,1.0,2
0.863059452237809,0.0,0.0799999999999999,1.0,0.6470588235294118,0.0,0.4032258064516129,0.3333333333333333,0.6166666666666666,0.5714285714285714,0.65,0.2989795918367347,0.1481975967957276,0.2977017637626937,0.7857142857142857,0.1666666666666666,0.9444444444444444,1.0,0.0,1.0,1
0.5945223780895125,0.0,0.3599999999999999,0.0,0.1176470588235294,1.0,0.5483870967741935,0.7777777777777778,0.85,0.0,0.3,0.0071428571428571,0.5046728971962616,0.7704436130411544,0.6428571428571429,0.3888888888888888,0.6666666666666665,1.0,1.0,0.0,2
0.4869739478957916,1.0,0.6800000000000002,1.0,0.3529411764705882,0.0,0.3870967741935484,0.7777777777777778,0.3583333333333333,0.5714285714285714,0.35,0.2122448979591837,0.1174899866488651,0.1956173169428113,0.4285714285714286,0.2777777777777778,0.3888888888888889,0.0,1.0,1.0,0
0.6466265865063461,0.0,0.0,0.0,0.1764705882352941,1.0,0.9032258064516128,0.4444444444444445,0.5833333333333334,0.8571428571428572,0.4,0.8668367346938777,0.9012016021361816,0.3514163548904329,0.8571428571428571,0.8888888888888888,0.0,1.0,0.0,0.0,2
0.1108884435537742,0.0,0.8400000000000001,1.0,0.1764705882352941,0.0,0.0967741935483871,0.7777777777777778,0.8750000000000001,0.0,0.35,0.5178571428571429,0.965954606141522,0.6071619454836985,0.4285714285714286,0.4444444444444444,0.3333333333333333,0.0,1.0,0.0,2
0.4802939211756848,1.0,0.92,0.0,0.0588235294117647,0.0,0.8387096774193549,0.6666666666666666,0.2416666666666667,0.8571428571428572,1.0,0.1954081632653061,0.5,0.2087119187600213,0.0714285714285714,0.2222222222222222,0.7222222222222221,1.0,0.0,0.0,0
0.7100868403473615,0.0,0.3599999999999999,0.0,0.2941176470588235,1.0,0.3870967741935484,0.0,0.4083333333333333,0.7142857142857142,0.8,0.0596938775510204,0.4105473965287048,0.931587386424372,0.5714285714285714,0.1666666666666666,0.6111111111111112,1.0,1.0,0.0,3
0.918503674014696,0.0,0.0,0.0,0.5882352941176471,1.0,0.6129032258064516,0.2222222222222222,0.05,0.7142857142857142,0.7000000000000001,0.2785714285714286,0.7102803738317756,0.6031533939070015,0.3571428571428571,0.4444444444444444,0.7777777777777777,1.0,1.0,0.0,3
0.2745490981963928,0.0,0.0799999999999999,0.0,0.1764705882352941,0.0,0.7258064516129032,0.8888888888888888,0.85,0.2857142857142857,0.3,0.3693877551020408,0.1962616822429906,0.2846071619454837,0.1428571428571429,0.1111111111111111,0.2222222222222222,0.0,1.0,1.0,0
0.8283233132932533,1.0,0.52,0.0,0.0,0.0,0.1935483870967742,0.6666666666666666,0.525,1.0,0.0,0.3724489795918367,0.931241655540721,0.836718332442544,0.4285714285714286,0.1666666666666666,0.0555555555555555,1.0,0.0,0.0,3
0.3894455577822312,1.0,0.8400000000000001,0.0,0.1764705882352941,1.0,0.6129032258064516,0.8888888888888888,0.2249999999999999,0.2857142857142857,0.55,0.1642857142857143,0.1809078771695593,0.4513629075360769,0.7142857142857143,0.2222222222222222,0.4444444444444445,1.0,1.0,0.0,1
0.5811623246492986,0.0,0.0,0.0,0.2352941176470588,0.0,0.8064516129032258,0.4444444444444445,0.725,0.4285714285714285,0.95,0.2403061224489796,0.1088117489986648,0.7423837520042758,0.5714285714285714,0.3333333333333333,0.3333333333333333,0.0,0.0,0.0,2
0.2471609886439546,0.0,0.0399999999999999,0.0,0.1176470588235294,0.0,0.8064516129032258,0.0,0.8166666666666668,0.2857142857142857,0.15,0.0989795918367347,0.6255006675567423,0.0483698556921432,0.6428571428571429,0.3888888888888888,0.8333333333333333,1.0,0.0,0.0,0
0.8764195056780228,1.0,0.0399999999999999,1.0,0.0,1.0,0.0483870967741935,0.1111111111111111,0.9833333333333332,0.2857142857142857,0.4,0.1724489795918367,0.5380507343124166,0.1344200962052378,0.2857142857142857,0.1666666666666666,0.6666666666666665,1.0,1.0,0.0,0
0.6599866399465598,0.0,0.6400000000000001,1.0,0.0,0.0,0.1129032258064516,0.3333333333333333,0.7416666666666666,0.2857142857142857,0.05,0.4709183673469388,0.8404539385847796,0.3760021378941742,0.2857142857142857,0.1666666666666666,0.6666666666666665,1.0,0.0,1.0,1
0.1055444221776887,0.0,0.0,1.0,0.4117647058823529,1.0,0.0483870967741935,0.2222222222222222,0.7416666666666666,1.0,0.5,0.3362244897959184,0.1535380507343123,0.5168359166221271,0.7857142857142857,0.5555555555555556,0.7777777777777777,1.0,1.0,0.0,1
0.2839011356045424,1.0,0.12,0.0,0.3529411764705882,1.0,0.9193548387096774,0.7777777777777778,0.6749999999999999,0.8571428571428572,0.7000000000000001,0.0428571428571428,0.1955941255006675,0.0,0.9285714285714284,0.3888888888888888,0.0,1.0,0.0,1.0,0
0.95123580494322,0.0,1.0000000000000002,1.0,0.0,1.0,0.2258064516129032,0.7777777777777778,0.7916666666666666,1.0,0.55,0.501530612244898,0.3918558077436581,0.5122928915018706,0.1428571428571429,0.1666666666666666,0.9444444444444444,1.0,1.0,0.0,2
0.1135604542418169,0.0,0.96,0.0,0.4117647058823529,1.0,0.0,0.0,0.125,0.7142857142857142,0.95,0.313265306122449,0.7456608811748999,0.5403527525387493,0.5714285714285714,0.2222222222222222,0.0,1.0,0.0,0.0,2
0.0046760187040748,1.0,0.32,0.0,0.0588235294117647,0.0,0.7741935483870968,0.6666666666666666,0.0166666666666667,0.5714285714285714,0.45,0.0520408163265306,0.4639519359145527,0.5128273650454303,0.6428571428571429,0.2222222222222222,0.6666666666666665,0.0,0.0,1.0,1
0.8423513694054776,0.0,0.0399999999999999,0.0,0.1764705882352941,1.0,0.3870967741935484,0.0,0.025,0.7142857142857142,0.7000000000000001,0.2678571428571429,0.1361815754339118,0.6427044361304115,0.2857142857142857,0.3888888888888888,0.1111111111111111,1.0,1.0,0.0,2
0.3727454909819639,0.0,0.76,0.0,0.4705882352941176,0.0,0.9516129032258064,0.0,0.45,0.2857142857142857,0.9,0.8229591836734694,0.945260347129506,0.9246392303580973,0.7142857142857143,0.7222222222222222,0.4999999999999999,1.0,1.0,0.0,3
0.6359385437541751,0.0,0.4400000000000001,1.0,0.7058823529411764,1.0,0.8064516129032258,0.2222222222222222,0.1333333333333334,0.1428571428571428,0.9,0.0954081632653061,0.541388518024032,0.56574024585783,0.3571428571428571,0.0555555555555555,0.4444444444444445,1.0,1.0,1.0,2
0.6546426185704743,1.0,0.6000000000000001,1.0,0.0,0.0,0.532258064516129,0.4444444444444445,0.2083333333333333,0.2857142857142857,0.0,0.1270408163265306,0.0146862483311081,0.6357562800641368,0.8571428571428571,0.8888888888888888,0.1111111111111111,1.0,0.0,1.0,2
0.809619238476954,0.0,0.8,1.0,0.0588235294117647,0.0,0.4032258064516129,0.8888888888888888,0.3916666666666667,0.8571428571428572,0.15,0.3719387755102041,0.3164218958611482,0.5745590593265633,0.5714285714285714,0.5555555555555556,1.0,1.0,0.0,1.0,2
0.997995991983968,1.0,0.0,0.0,0.3529411764705882,0.0,0.3870967741935484,0.1111111111111111,0.4083333333333333,0.0,0.75,0.3311224489795918,0.4032042723631508,0.2848743987172635,0.7142857142857143,0.611111111111111,0.2777777777777777,0.0,1.0,1.0,1
0.6786907147628591,0.0,0.8,0.0,0.1176470588235294,1.0,0.0967741935483871,0.7777777777777778,0.7416666666666666,0.4285714285714285,0.9,0.2908163265306123,0.7643524699599467,0.6632816675574559,0.9285714285714284,0.8888888888888888,0.5555555555555556,1.0,0.0,0.0,2
0.957247828991316,1.0,0.8400000000000001,1.0,0.0,1.0,0.7096774193548387,0.0,0.1916666666666666,0.0,0.8500000000000001,0.3158163265306122,0.5333778371161548,0.7172634954569748,0.5714285714285714,0.5,0.0,1.0,1.0,1.0,3
0.4114896459585838,0.0,0.0,0.0,0.0588235294117647,0.0,0.1612903225806451,0.5555555555555555,0.5333333333333333,0.8571428571428572,0.4,0.4071428571428572,0.2116154873164218,0.705237840726884,0.1428571428571429,0.3333333333333333,0.7777777777777777,1.0,1.0,0.0,2
0.726118904475618,0.0,0.0,0.0,0.0,1.0,0.9516129032258064,0.7777777777777778,0.6583333333333333,0.0,0.65,0.5428571428571429,0.7303070761014685,0.8059861036878674,0.9285714285714284,0.0,0.8333333333333333,1.0,1.0,0.0,3
0.9418837675350702,1.0,0.6000000000000001,0.0,0.4117647058823529,1.0,1.0,0.5555555555555555,0.6916666666666668,1.0,0.4,0.9158163265306124,0.973297730307076,0.9663281667557456,0.2857142857142857,0.4444444444444444,0.4999999999999999,1.0,1.0,0.0,3
0.7742150968603876,0.0,0.0399999999999999,0.0,0.1176470588235294,1.0,0.3548387096774194,0.7777777777777778,0.7416666666666666,0.1428571428571428,0.15,0.1137755102040816,0.8524699599465955,0.5734901122394441,0.5,0.5555555555555556,0.6666666666666665,1.0,1.0,1.0,2
0.7808951235804944,1.0,0.4400000000000001,1.0,0.0,0.0,0.7258064516129032,0.7777777777777778,0.4916666666666666,1.0,0.75,0.8704081632653062,0.9252336448598132,0.165686798503474,0.7857142857142857,0.0,0.1666666666666666,1.0,1.0,0.0,1
0.2638610554442218,0.0,0.2,1.0,0.1764705882352941,1.0,0.032258064516129,0.2222222222222222,0.2583333333333333,0.0,0.2,0.7035714285714286,0.6468624833110814,0.2148583645109567,0.5,0.5555555555555556,0.1111111111111111,1.0,1.0,1.0,1
0.6786907147628591,0.0,0.0,0.0,0.3529411764705882,1.0,0.7419354838709677,0.5555555555555555,0.525,0.5714285714285714,0.7000000000000001,0.4091836734693878,0.6602136181575433,0.6857295563869588,0.7142857142857143,0.2777777777777778,0.4999999999999999,1.0,1.0,1.0,3
0.0547762191048764,1.0,0.16,1.0,0.0588235294117647,0.0,0.7903225806451613,0.8888888888888888,0.0666666666666666,1.0,0.1,0.8459183673469388,0.863818424566088,0.4123463388562265,0.7857142857142857,0.5,0.2777777777777777,0.0,1.0,0.0,1
0.2070808283233133,1.0,0.76,1.0,0.2941176470588235,1.0,0.0,0.2222222222222222,0.2166666666666666,0.7142857142857142,0.65,0.1698979591836734,0.6201602136181575,0.4957242116515232,0.9285714285714284,0.3888888888888888,0.0,1.0,0.0,1.0,1
0.777555110220441,1.0,0.0,0.0,0.1764705882352941,1.0,0.935483870967742,0.1111111111111111,0.95,0.7142857142857142,0.9,0.8020408163265307,0.7903871829105473,0.3594334580438268,0.9285714285714284,0.9444444444444444,0.6666666666666665,1.0,0.0,0.0,2
0.933867735470942,1.0,0.0399999999999999,0.0,0.0,0.0,0.3870967741935484,0.0,0.5916666666666667,0.1428571428571428,0.0,0.0489795918367347,0.2096128170894525,0.0213789417423837,0.5714285714285714,0.611111111111111,0.1111111111111111,1.0,0.0,1.0,0
0.7441549766199065,1.0,0.92,0.0,0.1764705882352941,0.0,0.1129032258064516,0.8888888888888888,0.3083333333333333,0.0,0.65,0.276530612244898,0.1188251001335113,0.7194013896312133,0.2142857142857143,0.1666666666666666,0.0555555555555555,1.0,1.0,0.0,2
0.5190380761523047,1.0,0.0,1.0,0.0588235294117647,0.0,0.8387096774193549,0.0,0.2,1.0,0.8,0.2964285714285714,0.1668891855807743,0.2402458578300373,0.1428571428571429,0.0555555555555555,1.0,0.0,0.0,1.0,0
0.6312625250501003,1.0,0.92,1.0,0.0,1.0,0.2580645161290322,0.2222222222222222,0.8166666666666668,1.0,0.05,0.1790816326530612,0.8471295060080106,0.8241582041688935,0.2142857142857143,0.0,0.7777777777777777,1.0,1.0,1.0,3
0.5096860387441551,0.0,0.96,1.0,0.1176470588235294,1.0,0.5161290322580645,0.1111111111111111,0.7583333333333334,0.2857142857142857,0.15,0.2867346938775511,0.232977303070761,0.0435595938001068,0.1428571428571429,0.2222222222222222,0.0555555555555555,1.0,1.0,1.0,0
0.2050768203072812,0.0,0.0,1.0,0.0,0.0,0.0967741935483871,0.0,0.9333333333333336,0.4285714285714285,0.05,0.3153061224489796,0.9285714285714286,0.9369321218599678,0.7142857142857143,0.5,0.5555555555555556,1.0,0.0,1.0,3
0.2658650634602538,0.0,0.0,1.0,0.7647058823529411,1.0,0.8870967741935484,0.8888888888888888,0.7666666666666667,0.1428571428571428,0.9,0.4020408163265306,0.554739652870494,0.028861571352218,0.4285714285714286,0.0555555555555555,0.2777777777777777,1.0,1.0,0.0,0
0.7074148296593188,0.0,0.72,0.0,0.0,1.0,0.3225806451612903,0.7777777777777778,0.7416666666666666,0.8571428571428572,0.05,0.3801020408163266,0.5767690253671561,0.4494922501336184,0.7142857142857143,0.611111111111111,0.7777777777777777,1.0,1.0,1.0,2
0.2177688710754843,1.0,0.0399999999999999,1.0,0.5294117647058824,1.0,0.532258064516129,0.1111111111111111,0.0583333333333333,0.7142857142857142,0.8500000000000001,0.011734693877551,0.2176234979973297,0.5641368252271513,0.0,0.1666666666666666,0.7222222222222221,1.0,0.0,1.0,1
0.0126920507682031,0.0,0.72,0.0,0.0,1.0,0.467741935483871,0.7777777777777778,0.5416666666666666,0.7142857142857142,0.7000000000000001,0.1346938775510204,0.0126835781041388,0.6672902191341528,0.5714285714285714,0.3888888888888888,0.8333333333333333,1.0,0.0,1.0,1
0.0360721442885771,1.0,0.0,1.0,0.1176470588235294,0.0,0.2419354838709677,0.1111111111111111,0.6916666666666668,0.5714285714285714,0.6000000000000001,0.4877551020408163,0.3404539385847797,0.0232495991448423,1.0,0.7777777777777777,0.0555555555555555,0.0,1.0,1.0,0
0.8403473613894457,1.0,0.3599999999999999,0.0,0.5882352941176471,1.0,0.2096774193548387,0.3333333333333333,0.175,0.4285714285714285,0.65,0.1948979591836734,0.4425901201602136,0.494655264564404,0.9285714285714284,0.2777777777777778,0.7777777777777777,1.0,1.0,0.0,2
0.2150968603874415,1.0,0.0,0.0,0.0,0.0,0.5967741935483871,0.3333333333333333,0.8916666666666667,1.0,0.2,0.3214285714285714,0.2590120160213618,0.0101549973276322,0.5714285714285714,0.5,0.4999999999999999,0.0,0.0,1.0,0
0.3967935871743487,1.0,0.8400000000000001,1.0,0.0,1.0,0.6774193548387097,0.6666666666666666,0.1916666666666666,0.4285714285714285,0.25,0.4275510204081633,0.3778371161548731,0.7891501870657401,0.5714285714285714,0.611111111111111,0.3333333333333333,1.0,1.0,1.0,3
0.6158984635938545,0.0,0.0399999999999999,0.0,0.7058823529411764,0.0,0.6774193548387097,0.7777777777777778,0.4249999999999999,0.5714285714285714,0.65,0.2556122448979592,0.0934579439252336,0.5336718332442544,0.3571428571428571,0.4444444444444444,0.3888888888888889,0.0,0.0,0.0,1
0.1148964595858383,1.0,0.6800000000000002,1.0,0.1176470588235294,0.0,0.0161290322580645,0.3333333333333333,0.0333333333333333,0.1428571428571428,0.45,0.5658163265306123,0.4986648865153538,0.6582041688936398,1.0,0.1111111111111111,0.3888888888888889,1.0,1.0,1.0,2
0.0514362057448229,1.0,0.8400000000000001,1.0,0.1176470588235294,1.0,0.8870967741935484,0.1111111111111111,0.6833333333333335,1.0,0.4,0.5229591836734694,0.6228304405874499,0.270978086584714,0.7142857142857143,0.1666666666666666,0.1666666666666666,1.0,0.0,1.0,0
0.6058784235136941,1.0,0.6400000000000001,1.0,0.5882352941176471,0.0,0.6935483870967742,0.8888888888888888,0.075,0.5714285714285714,0.7000000000000001,0.3127551020408163,0.3925233644859812,0.9877071084981291,0.2142857142857143,0.3333333333333333,0.0555555555555555,0.0,0.0,1.0,3
0.2344689378757515,1.0,0.4400000000000001,1.0,0.3529411764705882,1.0,0.8387096774193549,0.3333333333333333,0.5583333333333335,0.5714285714285714,0.35,0.2744897959183673,0.1535380507343123,0.272314270443613,0.5714285714285714,0.3888888888888888,0.5555555555555556,1.0,0.0,1.0,0
0.0694722778891115,0.0,0.2,0.0,0.4705882352941176,1.0,0.1129032258064516,0.0,0.5166666666666667,0.2857142857142857,0.8,0.0816326530612245,0.3511348464619492,0.0363442009620523,0.7142857142857143,0.3333333333333333,0.1111111111111111,1.0,0.0,0.0,0
0.7127588510354042,1.0,0.0,0.0,0.9411764705882352,0.0,0.5,1.0,0.5833333333333334,1.0,1.0,0.2107142857142857,0.1028037383177569,0.0673436664885088,0.0,0.0555555555555555,0.2222222222222222,1.0,1.0,1.0,0
0.2692050768203073,0.0,0.8800000000000001,1.0,0.2352941176470588,0.0,0.2741935483870967,0.5555555555555555,0.5583333333333335,0.7142857142857142,0.35,0.5581632653061225,0.664886515353805,0.0772314270443613,1.0,1.0,0.7777777777777777,0.0,0.0,0.0,0
0.1008684034736139,1.0,0.76,1.0,0.5294117647058824,1.0,0.2419354838709677,0.6666666666666666,0.775,0.5714285714285714,0.55,0.0392857142857142,0.0393858477970627,0.459112773917691,0.5,0.5555555555555556,0.5555555555555556,1.0,0.0,0.0,0
0.0280561122244489,0.0,0.0,0.0,0.0,0.0,0.8870967741935484,0.6666666666666666,0.9333333333333336,0.5714285714285714,0.2,0.1994897959183673,0.3230974632843791,0.5764297167290219,0.8571428571428571,0.7777777777777777,0.7222222222222221,1.0,0.0,0.0,1
0.5404141616566467,1.0,0.72,1.0,0.3529411764705882,0.0,0.8870967741935484,0.8888888888888888,0.4583333333333333,1.0,0.45,0.2290816326530612,0.2596795727636849,0.2455905932656333,0.7857142857142857,0.0,0.3333333333333333,0.0,0.0,0.0,0
0.0507682030728123,0.0,0.76,0.0,0.4705882352941176,1.0,0.5645161290322581,0.8888888888888888,0.6749999999999999,0.7142857142857142,1.0,0.5545918367346939,0.6341789052069425,0.1491181186531266,0.4285714285714286,0.3888888888888888,0.9444444444444444,1.0,1.0,1.0,0
0.9018036072144288,0.0,0.96,0.0,0.0,0.0,0.8225806451612904,0.6666666666666666,0.2666666666666667,0.7142857142857142,0.1,0.0887755102040816,0.4506008010680907,0.647247461250668,0.0714285714285714,0.0,0.3333333333333333,1.0,0.0,0.0,2
0.0768203072812291,1.0,0.6800000000000002,0.0,0.1764705882352941,1.0,0.3064516129032257,0.7777777777777778,0.5833333333333334,0.8571428571428572,0.2,0.1770408163265306,0.0086782376502002,0.8046499198289684,0.8571428571428571,0.5,0.9444444444444444,1.0,0.0,0.0,2
0.4829659318637275,1.0,0.4400000000000001,0.0,0.5294117647058824,0.0,0.5,1.0,0.6416666666666667,0.0,0.9,0.2663265306122449,0.0420560747663551,0.946018172100481,0.3571428571428571,0.2777777777777778,0.6111111111111112,1.0,1.0,0.0,3
0.3152972611890448,1.0,0.4000000000000001,0.0,0.2941176470588235,1.0,0.8870967741935484,0.1111111111111111,0.9166666666666666,0.8571428571428572,0.8,0.2331632653061224,0.8785046728971961,0.7271512560128273,0.0714285714285714,0.2222222222222222,0.0,1.0,0.0,0.0,2
0.0394121576486306,0.0,0.0,0.0,0.8235294117647058,0.0,0.3387096774193548,1.0,0.5499999999999999,1.0,0.75,0.1816326530612245,0.9365821094793056,0.5622661678246926,0.8571428571428571,0.8888888888888888,0.8888888888888888,0.0,1.0,1.0,1
0.6112224448897796,1.0,0.52,1.0,0.0,0.0,0.2903225806451612,0.0,0.1083333333333333,0.4285714285714285,0.0,0.5994897959183674,0.719626168224299,0.9663281667557456,0.3571428571428571,0.1111111111111111,0.2777777777777777,0.0,0.0,1.0,3
0.2398129592518371,1.0,0.32,1.0,0.0588235294117647,1.0,0.7580645161290323,0.6666666666666666,0.5083333333333334,0.7142857142857142,0.65,0.3530612244897959,0.3197596795727636,0.965526456440406,0.7857142857142857,0.7777777777777777,1.0,1.0,1.0,1.0,3
0.5664662658650635,1.0,0.6400000000000001,1.0,0.1764705882352941,0.0,0.7096774193548387,0.8888888888888888,0.45,0.7142857142857142,0.6000000000000001,0.1081632653061224,0.0821094793057409,0.5641368252271513,0.4285714285714286,0.3888888888888888,0.4444444444444445,1.0,0.0,1.0,1
0.2598530394121576,1.0,0.6800000000000002,1.0,0.2352941176470588,0.0,0.6774193548387097,0.4444444444444445,0.9833333333333332,1.0,0.65,0.5479591836734694,0.9165554072096128,0.1322822020309994,0.1428571428571429,0.1666666666666666,0.0555555555555555,0.0,0.0,0.0,0
0.5744822979291918,1.0,0.3599999999999999,0.0,0.0588235294117647,0.0,0.7258064516129032,1.0,0.7416666666666666,0.5714285714285714,0.1,0.4494897959183674,0.5887850467289719,0.5983431320149653,0.2142857142857143,0.3888888888888888,0.7777777777777777,0.0,0.0,1.0,2
0.9605878423513694,1.0,0.92,1.0,0.0,1.0,0.8548387096774194,0.5555555555555555,0.9916666666666666,0.4285714285714285,0.5,0.163265306122449,0.0133511348464619,0.2113842864778193,0.6428571428571429,0.5555555555555556,0.8888888888888888,1.0,1.0,0.0,0
0.8303273213092854,1.0,0.2,0.0,0.0588235294117647,1.0,0.2903225806451612,0.4444444444444445,0.2666666666666667,1.0,0.15,0.0346938775510204,0.1455273698264352,0.2536076964190272,0.9285714285714284,0.3888888888888888,0.6666666666666665,1.0,0.0,0.0,1
0.8323313293253174,1.0,0.16,0.0,0.3529411764705882,1.0,0.7419354838709677,0.6666666666666666,0.1166666666666667,0.2857142857142857,0.95,0.4831632653061224,0.4212283044058744,0.5628006413682523,0.8571428571428571,0.1111111111111111,0.9444444444444444,1.0,1.0,0.0,2
0.1603206412825651,0.0,0.4000000000000001,0.0,0.0588235294117647,0.0,0.1935483870967742,0.2222222222222222,0.8166666666666668,0.5714285714285714,0.65,0.1704081632653061,0.0627503337783711,0.4355959380010689,1.0,0.611111111111111,0.3888888888888889,1.0,1.0,1.0,0
0.0554442217768871,1.0,0.52,0.0,0.0,1.0,0.2741935483870967,0.2222222222222222,0.7333333333333333,0.2857142857142857,0.0,0.5729591836734694,0.7489986648865152,0.0558524853019775,0.5,0.4444444444444444,0.1111111111111111,1.0,1.0,0.0,0
0.3386773547094188,0.0,0.12,0.0,0.6470588235294118,0.0,0.9516129032258064,1.0,0.2833333333333333,0.2857142857142857,0.75,0.5494897959183674,0.4152202937249666,0.4684660609299839,0.3571428571428571,0.1666666666666666,0.4999999999999999,1.0,0.0,0.0,1
0.0567802271209085,0.0,0.92,0.0,0.1176470588235294,0.0,0.2096774193548387,0.1111111111111111,0.025,0.2857142857142857,0.55,0.1229591836734694,0.2363150867823764,0.6242650988776055,0.5,0.4444444444444444,0.0555555555555555,0.0,0.0,0.0,1
0.7969271877087509,0.0,0.52,0.0,0.0,0.0,0.8225806451612904,1.0,0.8833333333333334,0.7142857142857142,0.0,0.6091836734693878,0.472630173564753,0.3733297701763762,0.1428571428571429,0.2777777777777778,0.2222222222222222,1.0,0.0,0.0,2
0.1416165664662659,0.0,0.3599999999999999,1.0,0.2352941176470588,0.0,0.8225806451612904,0.7777777777777778,0.15,0.0,0.8500000000000001,0.0627551020408163,0.6522029372496662,0.322287546766435,1.0,1.0,0.6111111111111112,1.0,0.0,1.0,0
0.7341349365397463,0.0,0.0,0.0,0.0588235294117647,1.0,0.2258064516129032,0.2222222222222222,0.1166666666666667,0.4285714285714285,0.8,0.6709183673469389,0.8077436582109478,0.4855692143238909,0.2857142857142857,0.2777777777777778,0.1111111111111111,1.0,1.0,0.0,2
0.7675350701402806,0.0,0.72,0.0,0.0,1.0,0.5806451612903226,0.6666666666666666,0.075,0.0,0.05,0.3943877551020408,0.2543391188251001,0.0181721004810261,0.6428571428571429,0.5555555555555556,0.0,1.0,1.0,1.0,0
0.7034068136272547,0.0,0.92,1.0,0.4117647058823529,0.0,0.3387096774193548,0.0,0.2083333333333333,0.7142857142857142,0.9,0.3566326530612245,0.6622162883845126,0.5152324959914484,0.5714285714285714,0.5,1.0,1.0,0.0,1.0,2
0.6740146960587843,1.0,0.16,1.0,0.1176470588235294,0.0,0.6935483870967742,0.8888888888888888,0.8333333333333334,0.5714285714285714,0.15,0.3612244897959184,0.835781041388518,0.8626402993051843,0.2857142857142857,0.3333333333333333,0.4999999999999999,0.0,1.0,1.0,3
0.7608550434201737,1.0,0.0799999999999999,0.0,0.5882352941176471,1.0,0.3064516129032257,0.7777777777777778,0.7416666666666666,0.8571428571428572,0.7000000000000001,0.3005102040816327,0.534712950600801,0.0216461785141635,0.7857142857142857,0.1666666666666666,0.1666666666666666,1.0,1.0,0.0,0
0.0668002672010688,1.0,0.3599999999999999,0.0,0.2352941176470588,1.0,0.032258064516129,0.0,0.6166666666666666,0.4285714285714285,0.65,0.1816326530612245,0.1769025367156208,0.0737573490112239,0.5,0.4444444444444444,0.4444444444444445,1.0,1.0,1.0,0
0.3994655978623915,0.0,0.0,0.0,0.7647058823529411,1.0,0.9516129032258064,0.2222222222222222,0.5499999999999999,0.2857142857142857,1.0,0.2005102040816326,0.3978638184245661,0.3856226616782469,0.8571428571428571,0.5555555555555556,0.0555555555555555,1.0,1.0,1.0,1
0.2531730126920508,0.0,0.0,1.0,0.0588235294117647,0.0,0.6774193548387097,0.4444444444444445,0.7666666666666667,1.0,0.75,0.2224489795918367,0.5353805073431241,0.7685729556386958,0.2142857142857143,0.3888888888888888,0.2222222222222222,0.0,1.0,1.0,2
0.6573146292585171,1.0,0.16,1.0,0.0,1.0,0.4193548387096774,0.7777777777777778,0.65,0.5714285714285714,0.05,0.1892857142857143,0.3491321762349799,0.7977017637626936,0.6428571428571429,0.611111111111111,0.4999999999999999,1.0,1.0,0.0,3
0.7935871743486975,0.0,0.52,0.0,1.0,0.0,0.3548387096774194,0.2222222222222222,0.3916666666666667,0.2857142857142857,0.9,0.4867346938775511,0.4672897196261681,0.6707642971672901,0.1428571428571429,0.1111111111111111,0.2777777777777777,0.0,1.0,1.0,3
0.3807615230460922,0.0,0.8400000000000001,0.0,0.0,0.0,0.7580645161290323,0.2222222222222222,0.9916666666666666,0.4285714285714285,0.25,0.6775510204081633,0.9813084112149532,0.8383217530732228,0.0714285714285714,0.2777777777777778,0.2777777777777777,1.0,0.0,0.0,3
0.6466265865063461,0.0,0.6400000000000001,0.0,0.0,0.0,0.0967741935483871,0.6666666666666666,0.3583333333333333,0.8571428571428572,0.0,0.2030612244897959,0.4225634178905206,0.2127204703367183,0.2142857142857143,0.0555555555555555,0.0555555555555555,0.0,1.0,0.0,0
0.9158316633266534,1.0,0.16,1.0,0.0,0.0,0.2258064516129032,0.4444444444444445,0.0,0.1428571428571428,0.1,0.1459183673469387,0.6568758344459279,0.5448957776590059,0.7142857142857143,0.611111111111111,0.7777777777777777,0.0,0.0,1.0,2
0.3881095524382097,0.0,0.72,1.0,0.6470588235294118,0.0,0.0,1.0,0.175,0.4285714285714285,1.0,0.2030612244897959,0.1495327102803738,0.5133618385889898,0.5,0.1111111111111111,0.8333333333333333,0.0,1.0,0.0,1
0.2772211088844356,1.0,0.8400000000000001,0.0,0.0,0.0,0.5483870967741935,0.2222222222222222,0.9583333333333334,0.4285714285714285,0.6000000000000001,0.0959183673469387,0.3284379172229639,0.3244254409406734,0.5714285714285714,0.0,0.6666666666666665,0.0,1.0,0.0,0
0.70875083500334,1.0,0.2799999999999999,1.0,0.0,1.0,0.8064516129032258,0.0,0.2083333333333333,0.8571428571428572,0.45,0.2448979591836735,0.1522029372496662,0.6876002137894174,0.5714285714285714,0.5555555555555556,0.0555555555555555,1.0,1.0,1.0,2
0.5257181028724116,0.0,0.92,1.0,0.8823529411764706,0.0,0.7741935483870968,0.0,0.3416666666666667,0.1428571428571428,1.0,0.6005102040816327,0.8738317757009346,0.7677712453233564,0.8571428571428571,0.3333333333333333,0.0,0.0,0.0,0.0,3
0.7768871075484303,1.0,0.96,1.0,0.5294117647058824,1.0,0.2096774193548387,0.4444444444444445,0.8083333333333335,0.8571428571428572,0.95,0.6010204081632654,0.9539385847797062,0.4575093532870122,0.5,0.3888888888888888,0.3888888888888889,1.0,0.0,0.0,2
0.2244488977955911,0.0,0.76,1.0,0.0588235294117647,0.0,0.7903225806451613,0.1111111111111111,0.2,0.5714285714285714,0.75,0.3255102040816326,0.8885180240320427,0.0903260288615713,0.7857142857142857,0.3333333333333333,1.0,1.0,0.0,1.0,0
0.6860387441549767,1.0,0.52,1.0,0.1764705882352941,1.0,0.8548387096774194,0.7777777777777778,0.4083333333333333,0.5714285714285714,0.3,0.2316326530612245,0.8424566088117489,0.2741849278460716,0.4285714285714286,0.5,0.4999999999999999,1.0,1.0,1.0,1
0.6693386773547094,1.0,0.0799999999999999,0.0,0.5882352941176471,1.0,0.6612903225806451,0.1111111111111111,0.7166666666666667,0.4285714285714285,0.7000000000000001,0.4290816326530612,0.5367156208277704,0.498663816141101,0.7142857142857143,0.0555555555555555,0.0,1.0,0.0,0.0,2
0.4315297261189045,0.0,0.12,1.0,0.6470588235294118,0.0,0.4193548387096774,0.6666666666666666,0.65,0.7142857142857142,0.65,0.5535714285714286,0.4232309746328437,0.6336183858898984,0.9285714285714284,0.1666666666666666,0.7222222222222221,1.0,0.0,1.0,2
0.6192384769539079,1.0,0.4400000000000001,0.0,0.0,0.0,0.0806451612903225,0.0,0.6083333333333333,0.4285714285714285,0.1,0.2979591836734694,0.322429906542056,0.4147514698022447,0.5,0.4444444444444444,0.6111111111111112,0.0,1.0,0.0,1
0.1810287241148964,0.0,0.24,1.0,0.7058823529411764,0.0,0.5967741935483871,0.7777777777777778,0.0083333333333334,0.8571428571428572,0.7000000000000001,0.6704081632653062,0.903871829105474,0.6849278460716194,0.8571428571428571,0.8333333333333333,0.0555555555555555,1.0,1.0,0.0,3
0.3466933867735471,0.0,0.4000000000000001,0.0,0.7647058823529411,1.0,0.0806451612903225,0.6666666666666666,0.1333333333333334,0.2857142857142857,0.9,0.4438775510204082,0.7429906542056075,0.2367717797969,0.5714285714285714,0.5,0.3333333333333333,1.0,0.0,1.0,1
0.4796259185036741,0.0,0.4400000000000001,1.0,0.2941176470588235,0.0,0.032258064516129,0.2222222222222222,0.7416666666666666,0.7142857142857142,0.35,0.7239795918367348,0.7997329773030708,0.4655264564404061,0.2857142857142857,0.1111111111111111,0.1111111111111111,0.0,0.0,0.0,2
0.5991983967935872,0.0,0.4400000000000001,1.0,0.4705882352941176,1.0,0.3870967741935484,0.7777777777777778,0.5833333333333334,0.0,0.6000000000000001,0.3852040816326531,0.5233644859813084,0.8637092463923035,0.6428571428571429,0.1666666666666666,0.4999999999999999,1.0,1.0,0.0,3
0.0761523046092184,1.0,0.8,0.0,0.0,0.0,0.1290322580645161,0.7777777777777778,0.4249999999999999,0.7142857142857142,0.45,0.6204081632653062,0.8584779706275032,0.6715660074826295,0.7857142857142857,0.4444444444444444,0.4999999999999999,1.0,0.0,0.0,2
0.3146292585170341,1.0,0.48,0.0,0.0,1.0,0.8387096774193549,0.6666666666666666,0.2249999999999999,0.2857142857142857,0.2,0.3474489795918368,0.3671562082777035,0.439337252805986,0.7857142857142857,0.4444444444444444,0.9444444444444444,1.0,0.0,1.0,1
0.3266533066132265,1.0,0.8800000000000001,1.0,0.1764705882352941,0.0,0.2096774193548387,0.8888888888888888,0.6083333333333333,0.1428571428571428,0.35,0.7479591836734695,0.8124165554072096,0.652592196686264,0.4285714285714286,0.4444444444444444,0.2222222222222222,1.0,0.0,0.0,2
0.5377421509686039,1.0,0.6400000000000001,1.0,0.1176470588235294,1.0,0.5,0.3333333333333333,0.7833333333333333,0.2857142857142857,0.45,0.4423469387755102,0.5060080106809078,0.6052912880812399,0.0714285714285714,0.2777777777777778,0.7777777777777777,1.0,0.0,0.0,2
0.8476953907815632,1.0,0.72,0.0,0.0,0.0,0.1129032258064516,0.5555555555555555,0.8583333333333333,0.7142857142857142,0.25,0.5602040816326531,0.5827770360480641,0.9430785676109033,0.5714285714285714,0.5555555555555556,0.6666666666666665,1.0,0.0,1.0,3
0.1983967935871744,0.0,0.76,0.0,0.2941176470588235,0.0,0.032258064516129,0.1111111111111111,0.1333333333333334,0.2857142857142857,0.45,0.2683673469387755,0.0954606141522029,0.7239444147514698,0.7142857142857143,0.3888888888888888,0.6666666666666665,1.0,1.0,0.0,2
0.4482297929191717,1.0,0.6400000000000001,1.0,0.2352941176470588,0.0,0.6290322580645161,0.0,0.125,0.2857142857142857,0.35,0.6704081632653062,0.9238985313751668,0.2274184927846071,0.1428571428571429,0.1666666666666666,0.1666666666666666,0.0,0.0,0.0,1
0.7201068804275217,1.0,0.4000000000000001,0.0,0.0,0.0,0.4032258064516129,0.1111111111111111,0.5166666666666667,0.7142857142857142,0.9,0.4239795918367347,0.6568758344459279,0.389363976483164,0.7857142857142857,0.2222222222222222,0.4444444444444445,1.0,1.0,1.0,1
0.9706078824315298,0.0,0.0399999999999999,1.0,0.4705882352941176,0.0,0.0806451612903225,0.8888888888888888,0.3833333333333334,0.2857142857142857,0.45,0.3433673469387755,0.1268357810413884,0.8503474078033136,0.8571428571428571,0.6666666666666666,0.6111111111111112,1.0,0.0,0.0,3
0.0741482965931863,1.0,0.0799999999999999,0.0,0.3529411764705882,0.0,0.532258064516129,0.5555555555555555,0.8416666666666667,0.5714285714285714,0.6000000000000001,0.6602040816326531,0.5587449933244325,0.7784607161945483,0.6428571428571429,0.5,0.2222222222222222,0.0,0.0,0.0,2
0.8924515698062794,0.0,0.0,0.0,0.5294117647058824,0.0,0.5483870967741935,0.8888888888888888,0.6833333333333335,0.4285714285714285,1.0,0.4010204081632653,0.2483311081441922,0.1373597006948156,0.6428571428571429,0.0555555555555555,0.7222222222222221,0.0,0.0,1.0,0
0.4916499665998665,1.0,0.8,0.0,0.4117647058823529,0.0,0.1774193548387096,0.7777777777777778,0.15,0.4285714285714285,0.6000000000000001,0.0091836734693877,0.336448598130841,0.6071619454836985,0.4285714285714286,0.4444444444444444,0.7777777777777777,0.0,0.0,0.0,2
0.0828323313293253,1.0,0.56,0.0,0.7058823529411764,1.0,0.5,0.1111111111111111,0.925,0.0,1.0,0.2198979591836735,0.0333778371161548,0.94735435595938,0.3571428571428571,0.3333333333333333,0.0,1.0,0.0,0.0,2
0.1215764863059452,1.0,0.6400000000000001,0.0,0.4117647058823529,0.0,0.4516129032258065,0.0,0.975,0.8571428571428572,0.4,0.4729591836734694,0.4238985313751668,0.4836985569214324,0.2857142857142857,0.0,0.7222222222222221,0.0,0.0,0.0,1
0.5537742150968604,0.0,0.0,0.0,0.0,0.0,0.5806451612903226,1.0,0.8583333333333333,0.8571428571428572,0.05,0.6581632653061225,0.6281708945260347,0.39470871191876,0.2857142857142857,0.0,0.4999999999999999,1.0,0.0,1.0,1
0.4836339345357382,1.0,0.6400000000000001,1.0,0.4705882352941176,0.0,0.1774193548387096,0.4444444444444445,0.3,0.4285714285714285,0.6000000000000001,0.3872448979591837,0.6034712950600801,0.9567076429716728,0.5,0.611111111111111,0.4999999999999999,0.0,0.0,0.0,3
0.2625250501002004,0.0,0.0799999999999999,0.0,0.1176470588235294,1.0,0.9032258064516128,0.0,0.3583333333333333,0.1428571428571428,0.15,0.0806122448979591,0.164886515353805,0.8148049171566006,0.5,0.3888888888888888,0.0,1.0,0.0,0.0,2
0.1837007348029392,1.0,0.48,0.0,0.0,1.0,0.2903225806451612,1.0,0.5499999999999999,0.4285714285714285,0.45,0.5056122448979592,0.869826435246996,0.1146445750935328,0.7142857142857143,0.611111111111111,0.2777777777777777,1.0,1.0,1.0,0
0.4969939879759519,1.0,0.0399999999999999,0.0,0.1176470588235294,0.0,0.4516129032258065,0.6666666666666666,0.2083333333333333,0.5714285714285714,0.15,0.1683673469387755,0.623497997329773,0.6467129877071085,0.8571428571428571,0.4444444444444444,0.2777777777777777,1.0,0.0,0.0,2
0.6118904475617903,1.0,0.0,0.0,0.5882352941176471,1.0,0.6935483870967742,0.8888888888888888,0.7166666666666667,0.4285714285714285,0.95,0.1857142857142857,0.3531375166889186,0.5005344735435595,0.5714285714285714,0.5,0.5555555555555556,1.0,0.0,1.0,1
0.9859719438877756,0.0,0.32,1.0,0.1176470588235294,0.0,0.467741935483871,0.3333333333333333,0.775,1.0,0.3,0.5841836734693878,0.5714285714285714,0.6373597006948155,0.2142857142857143,0.1111111111111111,0.2777777777777777,0.0,0.0,0.0,3
0.5918503674014697,0.0,0.0,0.0,0.0,1.0,0.9516129032258064,0.4444444444444445,0.15,0.2857142857142857,0.0,0.4005102040816327,0.4345794392523364,0.0996793158738642,0.0,0.1666666666666666,0.4999999999999999,1.0,1.0,0.0,0
0.6379425517702072,0.0,0.4400000000000001,1.0,0.5294117647058824,1.0,0.5967741935483871,0.0,0.0,1.0,0.5,0.4158163265306123,0.7783711615487316,1.0,0.0714285714285714,0.1666666666666666,0.6111111111111112,1.0,1.0,0.0,3
0.1609886439545758,0.0,0.6800000000000002,1.0,0.2352941176470588,0.0,0.8709677419354839,0.1111111111111111,0.9166666666666666,0.8571428571428572,0.7000000000000001,0.2943877551020408,0.5734312416555407,0.8821485836451095,0.7857142857142857,0.611111111111111,0.5555555555555556,0.0,1.0,1.0,3
0.9953239812959254,0.0,0.6800000000000002,1.0,0.0588235294117647,1.0,0.6451612903225806,0.6666666666666666,0.0166666666666667,0.0,0.65,0.186734693877551,0.0754339118825099,0.1245323356493853,0.0714285714285714,0.2777777777777778,0.4444444444444445,1.0,1.0,0.0,0
0.5865063460253842,0.0,0.24,1.0,0.0588235294117647,1.0,0.2580645161290322,0.1111111111111111,0.4083333333333333,0.1428571428571428,0.8,0.4275510204081633,0.2570093457943925,0.561731694281133,0.3571428571428571,0.2777777777777778,0.7222222222222221,1.0,1.0,0.0,2
0.2398129592518371,1.0,0.4400000000000001,1.0,0.7647058823529411,0.0,0.7419354838709677,0.4444444444444445,0.8916666666666667,0.8571428571428572,0.9,0.1709183673469388,0.6428571428571428,0.4313201496525921,0.8571428571428571,0.1111111111111111,0.8888888888888888,1.0,0.0,0.0,1
0.1790247160988644,0.0,0.0,1.0,0.7058823529411764,1.0,0.8387096774193549,0.1111111111111111,0.2666666666666667,0.4285714285714285,0.95,0.7066326530612246,0.8544726301735648,0.1830571886691608,0.7142857142857143,0.4444444444444444,1.0,1.0,0.0,1.0,0
0.9018036072144288,1.0,0.56,1.0,0.1764705882352941,1.0,0.1612903225806451,0.8888888888888888,0.9833333333333332,0.7142857142857142,0.55,0.1494897959183673,0.979305740987984,0.1280064136825227,0.1428571428571429,0.3333333333333333,0.6666666666666665,1.0,0.0,1.0,0
0.8223112892451572,1.0,0.24,0.0,0.2352941176470588,1.0,0.1612903225806451,0.7777777777777778,0.325,1.0,0.45,0.4204081632653061,0.2543391188251001,0.2811330839123463,0.7857142857142857,0.3888888888888888,0.4999999999999999,1.0,0.0,1.0,1
0.5470941883767536,0.0,0.0,1.0,0.4117647058823529,0.0,0.7419354838709677,0.1111111111111111,0.7333333333333333,0.5714285714285714,0.8,0.0525510204081632,0.7229639519359146,0.7047033671833244,0.2142857142857143,0.2777777777777778,0.3888888888888889,0.0,0.0,1.0,2
0.3473613894455578,0.0,0.32,0.0,0.4117647058823529,0.0,0.1129032258064516,0.6666666666666666,0.9333333333333336,0.1428571428571428,0.6000000000000001,0.4596938775510204,0.8631508678237649,0.2936932121859967,0.0714285714285714,0.0555555555555555,0.6666666666666665,1.0,1.0,0.0,1
0.010688042752171,0.0,0.3599999999999999,1.0,0.1764705882352941,1.0,0.5,0.7777777777777778,0.8583333333333333,0.4285714285714285,0.4,0.336734693877551,0.3164218958611482,0.9214323890967396,0.8571428571428571,0.8888888888888888,0.4999999999999999,1.0,0.0,1.0,3
0.0467601870407481,0.0,0.0399999999999999,0.0,0.0588235294117647,1.0,0.6612903225806451,0.4444444444444445,0.5083333333333334,0.2857142857142857,0.4,0.1142857142857143,0.1889185580774365,0.6229289150187065,0.1428571428571429,0.2777777777777778,0.8888888888888888,1.0,0.0,0.0,1
0.8871075484301938,1.0,0.0,0.0,0.0,1.0,0.2096774193548387,0.3333333333333333,0.6666666666666666,0.5714285714285714,0.35,0.3719387755102041,0.5120160213618157,0.4874398717263495,0.7857142857142857,0.611111111111111,0.5555555555555556,1.0,0.0,1.0,2
0.7267869071476287,1.0,0.6800000000000002,1.0,0.1176470588235294,0.0,0.9032258064516128,0.0,0.4,0.4285714285714285,0.2,0.488265306122449,0.9419225634178904,0.9901122394441476,0.7857142857142857,0.7777777777777777,0.6666666666666665,1.0,0.0,1.0,3
0.4896459585838344,1.0,0.4400000000000001,1.0,0.0588235294117647,0.0,0.5,0.5555555555555555,0.7666666666666667,0.0,0.15,0.0846938775510204,0.1855807743658211,0.3188134687332977,0.4285714285714286,0.3888888888888888,0.2222222222222222,0.0,0.0,1.0,0
0.5023380093520374,0.0,0.0799999999999999,0.0,0.0,1.0,0.5161290322580645,0.8888888888888888,0.275,0.4285714285714285,0.5,0.0821428571428571,0.0981308411214952,0.8717263495456974,0.1428571428571429,0.1666666666666666,0.3333333333333333,1.0,1.0,1.0,3
0.9752839011356048,1.0,0.4000000000000001,0.0,0.5882352941176471,0.0,0.8548387096774194,0.4444444444444445,0.1666666666666667,0.8571428571428572,1.0,0.4392857142857143,0.9265687583444592,0.5609299839657936,0.6428571428571429,0.3888888888888888,0.2222222222222222,1.0,1.0,1.0,3
0.0360721442885771,1.0,1.0000000000000002,1.0,0.2941176470588235,1.0,0.5806451612903226,0.7777777777777778,0.9416666666666668,0.1428571428571428,0.5,0.1091836734693877,0.9813084112149532,0.3821485836451095,0.2142857142857143,0.0555555555555555,0.3333333333333333,1.0,0.0,1.0,1
0.0647962591850367,1.0,0.12,1.0,0.4705882352941176,1.0,0.967741935483871,0.0,0.3083333333333333,1.0,0.45,0.060204081632653,0.1762349799732977,0.7509353287012293,0.4285714285714286,0.1111111111111111,0.9444444444444444,1.0,1.0,0.0,2
0.1416165664662659,1.0,0.4400000000000001,0.0,0.4117647058823529,1.0,0.0,0.3333333333333333,0.8416666666666667,1.0,0.45,0.6178571428571429,0.5861148197596795,0.0611972207375735,0.3571428571428571,0.3333333333333333,0.1111111111111111,1.0,1.0,1.0,0
0.2745490981963928,0.0,0.0,1.0,0.0,0.0,0.9032258064516128,0.2222222222222222,0.2249999999999999,0.5714285714285714,0.05,0.0841836734693877,0.8164218958611482,0.8864243719935863,0.8571428571428571,0.1666666666666666,1.0,1.0,1.0,0.0,3
0.2431529726118905,0.0,0.96,0.0,0.2941176470588235,0.0,0.2258064516129032,0.0,0.075,0.4285714285714285,0.6000000000000001,0.1709183673469388,0.3397863818424566,0.8653126670229823,0.5714285714285714,0.1666666666666666,0.6666666666666665,0.0,0.0,1.0,3
0.7067468269873081,1.0,0.4400000000000001,1.0,0.3529411764705882,1.0,0.064516129032258,0.4444444444444445,0.6833333333333335,0.7142857142857142,0.8500000000000001,0.0913265306122449,0.7069425901201603,0.8273650454302511,0.2857142857142857,0.0555555555555555,0.0555555555555555,1.0,1.0,1.0,3
0.5090180360721444,0.0,0.0,0.0,0.7058823529411764,0.0,1.0,0.2222222222222222,0.7916666666666666,0.5714285714285714,0.9,0.0908163265306122,0.9232309746328438,0.2477284874398717,0.6428571428571429,0.1666666666666666,0.8333333333333333,0.0,0.0,1.0,1
0.094188376753507,0.0,0.92,0.0,0.1764705882352941,0.0,0.5161290322580645,0.7777777777777778,0.975,0.1428571428571428,0.75,0.1688775510204082,0.3411214953271028,0.8281667557455905,0.5,0.2777777777777778,0.6111111111111112,0.0,0.0,0.0,2
0.5791583166332666,0.0,0.0,0.0,0.5882352941176471,1.0,0.6451612903225806,0.1111111111111111,0.0916666666666666,0.0,1.0,0.4627551020408164,0.2837116154873164,0.356493853554249,0.5,0.0,0.6666666666666665,1.0,0.0,0.0,1
0.7307949231796929,0.0,0.56,1.0,0.0588235294117647,0.0,0.9838709677419356,0.8888888888888888,0.0666666666666666,0.0,1.0,0.7525510204081634,0.993324432576769,0.1742383752004275,0.9285714285714284,0.7222222222222222,0.2222222222222222,0.0,0.0,1.0,1
0.0721442885771543,1.0,0.0,0.0,0.2352941176470588,1.0,0.1290322580645161,0.0,0.0083333333333334,0.7142857142857142,0.3,0.0576530612244898,0.6835781041388518,0.440673436664885,0.7857142857142857,0.1666666666666666,0.8888888888888888,1.0,1.0,1.0,1
0.7120908483633934,0.0,0.0,1.0,0.1764705882352941,0.0,0.3225806451612903,0.4444444444444445,0.325,0.7142857142857142,0.3,0.2780612244897959,0.7483311081441921,0.5494388027792624,0.2857142857142857,0.0555555555555555,0.8888888888888888,1.0,0.0,0.0,2
0.7201068804275217,1.0,0.0,1.0,0.0,0.0,0.0483870967741935,0.1111111111111111,0.0666666666666666,0.8571428571428572,0.45,0.692857142857143,0.8271028037383177,0.8754676643506145,0.8571428571428571,0.611111111111111,0.5555555555555556,0.0,0.0,1.0,3
0.1235804943219773,1.0,0.0,0.0,0.6470588235294118,0.0,0.0161290322580645,0.2222222222222222,0.0916666666666666,0.7142857142857142,0.75,0.5658163265306123,0.5954606141522029,0.0839123463388562,0.1428571428571429,0.3333333333333333,0.9444444444444444,0.0,1.0,0.0,0
0.6740146960587843,1.0,0.8,1.0,0.6470588235294118,0.0,0.7258064516129032,0.6666666666666666,0.4833333333333333,0.1428571428571428,0.65,0.060204081632653,0.4472630173564752,0.1686264029930518,0.9285714285714284,0.3333333333333333,0.1666666666666666,0.0,0.0,0.0,0
0.70875083500334,1.0,0.32,1.0,0.0588235294117647,1.0,0.0806451612903225,0.1111111111111111,0.9166666666666666,0.5714285714285714,0.75,0.3275510204081633,0.6895861148197597,0.5309994655264564,0.5,0.5555555555555556,0.2222222222222222,1.0,0.0,0.0,2
0.2451569806279225,0.0,0.48,0.0,0.0,0.0,0.4516129032258065,0.7777777777777778,0.025,0.4285714285714285,0.0,0.1408163265306122,0.3511348464619492,0.3733297701763762,0.4285714285714286,0.3888888888888888,0.8333333333333333,1.0,0.0,0.0,1
0.4782899131596527,1.0,0.0,0.0,0.1764705882352941,0.0,0.2419354838709677,0.4444444444444445,0.85,0.4285714285714285,0.65,0.3204081632653061,0.0881174899866488,0.3888295029396044,0.1428571428571429,0.1666666666666666,0.3888888888888889,1.0,0.0,1.0,1
0.8463593854375417,1.0,0.6000000000000001,0.0,0.0,1.0,0.0,0.7777777777777778,0.0666666666666666,0.8571428571428572,0.1,0.664795918367347,0.8771695594125499,0.8017103153393906,0.2857142857142857,0.3333333333333333,0.1666666666666666,1.0,1.0,0.0,3
0.0334001336005344,1.0,0.92,0.0,0.0,1.0,0.8387096774193549,0.0,0.7666666666666667,0.8571428571428572,0.75,0.0862244897959183,0.945260347129506,0.3094601817210047,0.0714285714285714,0.0555555555555555,0.9444444444444444,1.0,0.0,1.0,0
0.0781563126252505,0.0,0.0399999999999999,0.0,0.4705882352941176,0.0,0.2258064516129032,0.1111111111111111,0.525,0.0,0.7000000000000001,0.5637755102040817,0.7356475300400533,0.5360769641902725,0.7857142857142857,0.8333333333333333,0.1111111111111111,0.0,1.0,0.0,2
0.31062124248497,0.0,0.6000000000000001,0.0,0.4705882352941176,1.0,0.5161290322580645,0.4444444444444445,0.3166666666666666,0.1428571428571428,0.5,0.1091836734693877,0.6829105473965287,0.8760021378941741,0.9285714285714284,0.9444444444444444,0.4999999999999999,1.0,1.0,1.0,3
0.383433533734135,0.0,0.0,1.0,0.1176470588235294,0.0,0.1451612903225806,0.1111111111111111,0.35,0.0,0.8,0.138265306122449,0.8471295060080106,0.9810261892036344,0.2142857142857143,0.1666666666666666,0.2777777777777777,1.0,0.0,0.0,3
0.7227788911155646,1.0,0.6400000000000001,1.0,0.6470588235294118,0.0,0.1935483870967742,0.6666666666666666,0.5666666666666668,0.8571428571428572,0.8,0.4806122448979592,0.7683578104138851,0.3869588455371459,0.8571428571428571,0.7222222222222222,0.0,1.0,0.0,1.0,2
0.27187708750835,0.0,0.6400000000000001,0.0,0.0588235294117647,0.0,0.6774193548387097,0.5555555555555555,0.125,0.5714285714285714,0.1,0.0785714285714285,0.2943925233644859,0.8717263495456974,0.7857142857142857,0.6666666666666666,0.2777777777777777,1.0,1.0,1.0,3
0.7648630594522379,1.0,0.72,0.0,0.4705882352941176,1.0,0.6290322580645161,0.1111111111111111,0.8750000000000001,0.1428571428571428,0.5,0.8801020408163266,0.9559412550066756,0.8238909673971138,0.9285714285714284,0.5555555555555556,0.9444444444444444,1.0,1.0,0.0,3
0.7702070808283235,0.0,0.52,0.0,0.0588235294117647,0.0,0.1451612903225806,0.2222222222222222,0.5499999999999999,0.8571428571428572,0.1,0.6040816326530613,0.8137516688918558,0.2175307322287546,0.2142857142857143,0.0555555555555555,0.6666666666666665,1.0,1.0,1.0,1
0.2424849699398797,0.0,0.4400000000000001,1.0,0.0,1.0,0.8225806451612904,0.2222222222222222,0.0666666666666666,0.7142857142857142,0.05,0.1336734693877551,0.6248331108144192,0.0633351149118118,0.9285714285714284,0.5,0.4444444444444445,1.0,1.0,0.0,0
0.0781563126252505,1.0,0.2,0.0,0.5294117647058824,1.0,0.1774193548387096,0.0,0.0,0.4285714285714285,0.75,0.3015306122448979,0.1495327102803738,0.3121325494388027,0.7142857142857143,0.6666666666666666,0.2777777777777777,1.0,1.0,0.0,0
0.7094188376753507,0.0,0.76,0.0,0.0,1.0,0.3548387096774194,0.1111111111111111,0.7500000000000001,1.0,0.0,0.0724489795918367,0.8004005340453939,0.9096739711384284,0.1428571428571429,0.2777777777777778,0.1666666666666666,1.0,1.0,0.0,3
0.8350033400133601,0.0,0.0,1.0,0.3529411764705882,0.0,0.0967741935483871,0.5555555555555555,0.8166666666666668,0.7142857142857142,1.0,0.086734693877551,0.0427236315086781,0.7250133618385889,0.2142857142857143,0.3333333333333333,0.8333333333333333,0.0,0.0,1.0,2
0.2338009352037409,0.0,0.72,1.0,0.4117647058823529,1.0,0.8387096774193549,1.0,0.175,0.1428571428571428,0.45,0.4020408163265306,0.3384512683578103,0.2001603420630678,0.5,0.1111111111111111,0.6666666666666665,1.0,0.0,1.0,0
0.1416165664662659,0.0,0.4400000000000001,0.0,0.2352941176470588,1.0,0.9838709677419356,0.6666666666666666,0.075,0.1428571428571428,0.4,0.0525510204081632,0.8411214953271027,0.4879743452699091,0.7142857142857143,0.5555555555555556,0.5555555555555556,1.0,0.0,0.0,1
0.4896459585838344,0.0,0.48,1.0,0.4705882352941176,0.0,0.2419354838709677,0.8888888888888888,0.7833333333333333,0.7142857142857142,0.75,0.1066326530612245,0.1502002670226969,0.8270978086584714,0.5,0.5,0.9444444444444444,0.0,0.0,1.0,2
0.0467601870407481,1.0,0.6000000000000001,1.0,0.2941176470588235,1.0,0.9032258064516128,0.5555555555555555,0.175,0.7142857142857142,0.55,0.0158163265306122,0.6915887850467288,0.0799037947621592,1.0,0.5555555555555556,0.4999999999999999,1.0,0.0,1.0,0
0.7314629258517036,0.0,0.96,1.0,0.4117647058823529,0.0,0.0806451612903225,0.6666666666666666,0.5750000000000001,0.1428571428571428,0.45,0.0862244897959183,0.4606141522029372,0.5978086584714056,0.6428571428571429,0.6666666666666666,0.6111111111111112,1.0,1.0,1.0,2
0.2685370741482966,0.0,0.2,1.0,0.0,1.0,0.7741935483870968,0.3333333333333333,0.0916666666666666,0.0,0.0,0.6275510204081634,0.4906542056074766,0.1215927311598075,0.2857142857142857,0.2777777777777778,0.4444444444444445,1.0,1.0,0.0,0
0.4054776219104877,1.0,0.96,0.0,0.5882352941176471,0.0,0.8064516129032258,0.0,0.8583333333333333,0.1428571428571428,0.6000000000000001,0.0663265306122449,0.8050734312416554,0.803848209513629,0.7857142857142857,0.0555555555555555,0.6111111111111112,0.0,1.0,1.0,3
0.1022044088176353,1.0,0.32,0.0,0.0,1.0,0.8064516129032258,0.6666666666666666,0.9666666666666668,0.4285714285714285,0.2,0.8750000000000001,0.93324432576769,0.2084446819882415,0.8571428571428571,0.2222222222222222,0.6111111111111112,1.0,0.0,0.0,1
0.1977287909151637,0.0,0.6800000000000002,1.0,0.0,0.0,0.5645161290322581,0.8888888888888888,0.5333333333333333,0.8571428571428572,0.1,0.1051020408163265,0.445260347129506,0.5237840726884019,0.2857142857142857,0.2777777777777778,0.2222222222222222,1.0,0.0,0.0,1
0.7094188376753507,0.0,0.48,1.0,0.5882352941176471,0.0,0.2258064516129032,0.0,0.5916666666666667,0.8571428571428572,0.65,0.2091836734693877,0.0480640854472629,0.9796900053447352,0.4285714285714286,0.0555555555555555,0.3333333333333333,0.0,0.0,1.0,3
0.550434201736807,0.0,0.56,0.0,0.1176470588235294,0.0,0.7741935483870968,0.0,0.5499999999999999,0.0,0.5,0.2545918367346939,0.130173564753004,0.5537145911277391,0.8571428571428571,0.5555555555555556,0.0,1.0,0.0,0.0,2
0.5136940547762192,1.0,0.72,0.0,0.0,0.0,0.9032258064516128,0.4444444444444445,0.2,0.5714285714285714,0.05,0.7714285714285715,0.8117489986648865,0.8132014965259219,0.5714285714285714,0.2222222222222222,0.7777777777777777,0.0,0.0,1.0,3
0.5424181696726788,1.0,0.52,1.0,0.2352941176470588,0.0,0.1129032258064516,0.3333333333333333,0.2083333333333333,0.0,0.3,0.2122448979591837,0.5393858477970627,0.944681988241582,0.4285714285714286,0.5555555555555556,0.2222222222222222,0.0,1.0,1.0,3
0.8817635270541082,0.0,0.48,0.0,0.2352941176470588,1.0,0.1290322580645161,0.7777777777777778,0.4916666666666666,1.0,0.5,0.1943877551020408,0.3457943925233644,0.792089791555318,0.5714285714285714,0.4444444444444444,0.8888888888888888,1.0,0.0,1.0,3
0.5130260521042085,1.0,0.92,1.0,0.9411764705882352,0.0,0.6290322580645161,1.0,0.8333333333333334,1.0,0.8500000000000001,0.2071428571428571,0.3578104138851802,0.5571886691608765,0.3571428571428571,0.5,0.7777777777777777,0.0,0.0,1.0,2
0.4181696726786907,1.0,0.96,1.0,0.2941176470588235,1.0,0.8870967741935484,0.7777777777777778,0.6916666666666668,0.0,0.65,0.473469387755102,0.3664886515353804,0.478888295029396,0.4285714285714286,0.2777777777777778,0.8333333333333333,1.0,1.0,1.0,1
0.7561790247160989,0.0,0.48,1.0,0.1764705882352941,1.0,0.5,0.8888888888888888,0.2583333333333333,0.1428571428571428,0.95,0.0744897959183673,0.2710280373831776,0.0681453768038481,0.2857142857142857,0.0,0.2777777777777777,1.0,1.0,0.0,0
0.7034068136272547,1.0,0.0,1.0,0.6470588235294118,0.0,0.0483870967741935,1.0,0.3666666666666666,0.2857142857142857,0.6000000000000001,0.201530612244898,0.7202937249666221,0.9029930518439336,0.1428571428571429,0.2222222222222222,0.8888888888888888,0.0,0.0,0.0,3
0.0567802271209085,0.0,0.0,1.0,0.0588235294117647,0.0,0.8870967741935484,0.2222222222222222,0.9,0.1428571428571428,0.25,0.6255102040816327,0.5934579439252337,0.9059326563335114,0.7142857142857143,0.2222222222222222,0.4999999999999999,1.0,1.0,1.0,3
0.002004008016032,1.0,0.92,1.0,0.1176470588235294,0.0,0.8387096774193549,0.3333333333333333,0.6916666666666668,0.1428571428571428,0.5,0.6158163265306122,0.6935914552736981,0.567076429716729,0.8571428571428571,0.611111111111111,0.0,1.0,0.0,0.0,2
0.3527054108216433,1.0,0.56,1.0,0.2941176470588235,1.0,0.0483870967741935,0.1111111111111111,0.7583333333333334,0.5714285714285714,0.4,0.1346938775510204,0.3044058744993324,0.0871191876002137,0.7142857142857143,0.3888888888888888,0.1111111111111111,1.0,1.0,1.0,0
0.2144288577154308,1.0,0.0,0.0,0.0,1.0,0.7903225806451613,0.2222222222222222,0.6416666666666667,0.7142857142857142,1.0,0.3403061224489796,0.240320427236315,0.9593800106894708,0.3571428571428571,0.0555555555555555,0.0555555555555555,1.0,0.0,0.0,3
0.0220440881763527,0.0,0.0,1.0,0.0,1.0,0.2258064516129032,1.0,0.9083333333333332,0.5714285714285714,0.05,0.2005102040816326,0.466622162883845,0.9807589524318544,0.7857142857142857,0.6666666666666666,1.0,1.0,0.0,0.0,3
0.5838343353373414,0.0,0.0,1.0,0.1176470588235294,1.0,0.532258064516129,0.0,0.95,0.1428571428571428,0.15,0.1158163265306122,0.1815754339118824,0.4518973810796365,0.7142857142857143,0.7222222222222222,0.7222222222222221,1.0,1.0,1.0,1
0.2264529058116232,0.0,0.16,1.0,0.3529411764705882,0.0,0.5,0.6666666666666666,0.5833333333333334,0.7142857142857142,0.35,0.7561224489795919,0.7283044058744994,0.4853019775521111,0.3571428571428571,0.4444444444444444,0.9444444444444444,0.0,1.0,0.0,2
0.8176352705410823,1.0,0.4400000000000001,1.0,0.3529411764705882,1.0,0.064516129032258,0.4444444444444445,0.325,0.1428571428571428,0.9,0.3107142857142857,0.5387182910547397,0.8479422768572955,0.0714285714285714,0.2777777777777778,0.1111111111111111,1.0,1.0,0.0,3
0.8770875083500336,0.0,0.3599999999999999,1.0,0.0588235294117647,1.0,0.1129032258064516,0.3333333333333333,0.5083333333333334,0.1428571428571428,0.1,0.3857142857142857,0.1909212283044058,0.8818813468733298,0.9285714285714284,0.6666666666666666,0.7777777777777777,1.0,0.0,0.0,3
0.6245824983299934,1.0,0.76,1.0,0.1764705882352941,1.0,0.3387096774193548,0.2222222222222222,0.2166666666666666,0.5714285714285714,0.2,0.0964285714285714,0.6081441922563418,0.5964724746125066,0.2142857142857143,0.2222222222222222,0.3333333333333333,1.0,0.0,0.0,2
0.2424849699398797,0.0,0.8,0.0,0.5882352941176471,1.0,0.3548387096774194,0.6666666666666666,0.5666666666666668,0.4285714285714285,0.75,0.6948979591836736,0.5861148197596795,0.9909139497594868,0.5714285714285714,0.4444444444444444,0.5555555555555556,1.0,1.0,0.0,3
0.1389445557782231,0.0,0.56,0.0,0.6470588235294118,1.0,0.1774193548387096,0.0,0.0083333333333334,1.0,0.75,0.2908163265306123,0.6154873164218958,0.0563869588455371,0.8571428571428571,0.611111111111111,0.1666666666666666,1.0,1.0,1.0,0
0.5557782231128925,0.0,0.3599999999999999,0.0,0.1764705882352941,1.0,0.9193548387096774,0.6666666666666666,0.8583333333333333,0.8571428571428572,0.25,0.2010204081632653,0.534712950600801,0.8514163548904329,0.9285714285714284,0.8888888888888888,0.1666666666666666,1.0,1.0,0.0,3
0.0120240480961923,1.0,0.4400000000000001,1.0,0.4117647058823529,1.0,0.7903225806451613,0.2222222222222222,0.4333333333333334,0.4285714285714285,0.95,0.2806122448979592,0.0967957276368491,0.9371993586317476,0.7857142857142857,0.0555555555555555,0.1111111111111111,1.0,0.0,1.0,3
0.2030728122912491,1.0,0.0799999999999999,0.0,0.0,0.0,1.0,0.0,0.1416666666666667,0.4285714285714285,0.7000000000000001,0.3270408163265306,0.1361815754339118,0.043292357028327,0.4285714285714286,0.3333333333333333,0.8333333333333333,0.0,1.0,1.0,0
0.3333333333333333,1.0,0.0,0.0,0.7058823529411764,0.0,0.9838709677419356,0.6666666666666666,0.8250000000000001,1.0,0.9,0.7841836734693878,0.8417890520694258,0.9321218599679316,0.4285714285714286,0.0555555555555555,0.2777777777777777,0.0,0.0,1.0,3
0.7381429525718104,0.0,0.3599999999999999,0.0,0.1764705882352941,0.0,0.8870967741935484,0.0,0.6166666666666666,0.4285714285714285,0.2,0.5750000000000001,0.9506008010680906,0.8546231961517904,0.5714285714285714,0.4444444444444444,1.0,0.0,0.0,1.0,3
0.5210420841683367,1.0,0.92,1.0,0.1764705882352941,1.0,0.0967741935483871,0.2222222222222222,0.5333333333333333,0.4285714285714285,0.95,0.3010204081632653,0.3030707610146862,0.426242650988776,0.2142857142857143,0.1111111111111111,0.3888888888888889,1.0,1.0,0.0,1
0.0661322645290581,0.0,0.0,0.0,0.0588235294117647,0.0,0.7419354838709677,0.7777777777777778,0.925,0.2857142857142857,0.35,0.2556122448979592,0.644192256341789,0.8383217530732228,0.5,0.3888888888888888,0.3333333333333333,1.0,0.0,0.0,2
0.7935871743486975,1.0,0.76,1.0,0.0,1.0,0.1774193548387096,0.8888888888888888,0.7333333333333333,0.1428571428571428,0.45,0.2658163265306122,0.1161548731642189,0.2447888829502939,0.5,0.611111111111111,0.8333333333333333,1.0,1.0,1.0,0
0.541750167000668,1.0,0.12,1.0,0.0,0.0,0.3548387096774194,0.8888888888888888,0.6333333333333334,0.7142857142857142,0.0,0.0586734693877551,0.8618157543391187,0.9559059326563336,0.6428571428571429,0.7222222222222222,0.8333333333333333,0.0,1.0,0.0,3
0.7995991983967936,0.0,0.92,0.0,0.5882352941176471,1.0,0.0806451612903225,0.7777777777777778,0.4249999999999999,1.0,0.6000000000000001,0.0132653061224489,0.0053404539385847,0.7311598075895243,0.7142857142857143,0.1666666666666666,0.8333333333333333,1.0,1.0,0.0,2
0.8129592518370075,1.0,0.8,1.0,0.8235294117647058,1.0,0.064516129032258,0.0,0.8583333333333333,0.5714285714285714,0.8,0.2877551020408163,0.3204272363150867,0.9350614644575092,0.1428571428571429,0.0555555555555555,0.3333333333333333,1.0,1.0,1.0,3
0.3640614562458251,1.0,0.92,1.0,0.0,1.0,0.9032258064516128,0.1111111111111111,0.1666666666666667,1.0,0.0,0.1321428571428571,0.3604806408544726,0.9639230358097272,0.8571428571428571,0.6666666666666666,0.3888888888888889,1.0,1.0,1.0,3
0.3694054776219105,1.0,0.52,1.0,0.1764705882352941,1.0,0.6129032258064516,0.7777777777777778,0.9666666666666668,0.8571428571428572,0.5,0.0137755102040816,0.1829105473965286,0.5451630144307856,0.7857142857142857,0.6666666666666666,0.5555555555555556,1.0,0.0,1.0,1
0.7214428857715431,1.0,0.2,0.0,0.5294117647058824,0.0,0.6290322580645161,0.3333333333333333,0.7666666666666667,0.4285714285714285,0.95,0.3535714285714286,0.2336448598130841,0.3014430785676109,1.0,0.5,0.0,0.0,1.0,1.0,1
0.7815631262525051,0.0,0.0399999999999999,1.0,0.4117647058823529,1.0,0.9516129032258064,0.0,0.4083333333333333,0.1428571428571428,0.55,0.1341836734693877,0.2323097463284379,0.5558524853019775,0.3571428571428571,0.2222222222222222,0.2777777777777777,1.0,0.0,0.0,2
0.5357381429525718,0.0,0.2,1.0,0.0,1.0,0.2096774193548387,0.0,0.4833333333333333,0.2857142857142857,0.5,0.1168367346938775,0.7369826435246996,0.6194548369855691,0.5,0.2222222222222222,0.6666666666666665,1.0,1.0,1.0,2
0.8750835003340014,1.0,0.8,0.0,0.2352941176470588,1.0,0.0483870967741935,0.5555555555555555,0.15,0.4285714285714285,0.8,0.2280612244897959,0.0453938584779706,0.6531266702298235,0.5714285714285714,0.3888888888888888,0.3333333333333333,1.0,1.0,1.0,2
0.7748830995323983,0.0,0.56,1.0,0.2941176470588235,0.0,0.3387096774193548,1.0,0.7666666666666667,0.5714285714285714,0.5,0.4316326530612245,0.7570093457943925,0.6467129877071085,0.5,0.3333333333333333,0.4999999999999999,0.0,1.0,1.0,3
0.87374749498998,1.0,0.48,0.0,0.1764705882352941,1.0,0.9193548387096774,0.0,0.7833333333333333,0.2857142857142857,0.2,0.3260204081632653,0.1475300400534045,0.55264564404062,0.3571428571428571,0.3333333333333333,0.7777777777777777,1.0,0.0,1.0,2
0.6987307949231798,1.0,0.96,0.0,0.1176470588235294,0.0,0.8870967741935484,0.3333333333333333,0.2833333333333333,0.0,0.15,0.1770408163265306,0.3050734312416555,0.3645109567076429,0.2857142857142857,0.1111111111111111,0.9444444444444444,0.0,1.0,1.0,1
0.3754175016700067,0.0,0.6000000000000001,0.0,0.0,0.0,0.4032258064516129,0.1111111111111111,0.05,0.7142857142857142,0.35,0.1025510204081632,0.0547396528704939,0.64457509353287,0.5,0.2777777777777778,0.9444444444444444,0.0,0.0,0.0,2
0.7695390781563127,0.0,0.0,1.0,0.1176470588235294,1.0,0.5645161290322581,0.8888888888888888,0.7999999999999999,0.4285714285714285,0.3,0.2280612244897959,0.8578104138851803,0.9885088188134687,1.0,0.2222222222222222,0.8888888888888888,1.0,1.0,1.0,3
0.3754175016700067,1.0,0.8,0.0,0.0,1.0,0.467741935483871,0.8888888888888888,0.125,0.7142857142857142,0.5,0.1505102040816326,0.2903871829105473,0.1884019241047568,0.7857142857142857,0.3333333333333333,0.1666666666666666,1.0,1.0,0.0,0
0.9198396793587176,1.0,0.0,0.0,0.5294117647058824,0.0,0.4354838709677419,0.5555555555555555,0.0416666666666667,1.0,0.95,0.1071428571428571,0.3511348464619492,0.288081239978621,0.9285714285714284,0.3888888888888888,0.0,0.0,0.0,0.0,1
0.5631262525050101,0.0,0.4000000000000001,0.0,0.0588235294117647,0.0,0.1935483870967742,0.4444444444444445,0.9166666666666666,0.0,0.15,0.2137755102040816,0.0373831775700934,0.4858364510956707,0.2142857142857143,0.0555555555555555,0.1666666666666666,1.0,1.0,0.0,1
0.2792251169004677,0.0,0.0,1.0,0.6470588235294118,0.0,0.1774193548387096,0.2222222222222222,0.6583333333333333,0.0,0.75,0.1403061224489796,0.0467289719626168,0.2063067878140032,0.2142857142857143,0.2222222222222222,0.8333333333333333,1.0,0.0,0.0,0
0.676686706746827,0.0,0.96,0.0,0.0,0.0,0.4032258064516129,0.1111111111111111,0.3166666666666666,0.2857142857142857,0.05,0.0948979591836734,0.8744993324432577,0.239444147514698,0.2142857142857143,0.1666666666666666,1.0,0.0,1.0,1.0,1
0.963927855711423,1.0,0.0,0.0,0.0588235294117647,1.0,0.3870967741935484,0.4444444444444445,0.0999999999999999,0.4285714285714285,0.45,0.1596938775510204,0.1415220293724966,0.5521111704970604,1.0,0.4444444444444444,0.2777777777777777,1.0,0.0,1.0,2
0.7875751503006012,1.0,0.2799999999999999,1.0,0.3529411764705882,1.0,0.5645161290322581,0.6666666666666666,0.7333333333333333,0.4285714285714285,0.35,0.3464285714285715,0.4879839786381842,0.3214858364510956,0.7142857142857143,0.1666666666666666,0.0,1.0,1.0,0.0,1
0.0233800935203741,0.0,0.76,1.0,0.7058823529411764,1.0,0.0161290322580645,0.2222222222222222,0.85,0.8571428571428572,0.7000000000000001,0.7071428571428572,0.6935914552736981,0.0074826296098343,0.5,0.5,0.1111111111111111,1.0,1.0,0.0,0
0.8243152972611891,1.0,0.56,1.0,0.0,1.0,0.9193548387096774,0.6666666666666666,0.5666666666666668,0.7142857142857142,0.0,0.0698979591836734,0.2309746328437917,0.7947621592731159,0.0714285714285714,0.0555555555555555,0.3888888888888889,1.0,1.0,0.0,3
0.6265865063460254,0.0,0.16,0.0,0.7058823529411764,1.0,0.2903225806451612,0.7777777777777778,0.5583333333333335,0.0,0.8500000000000001,0.3193877551020408,0.2883845126835781,0.4099412079102084,1.0,0.6666666666666666,0.7222222222222221,1.0,0.0,1.0,1
0.7882431529726119,1.0,0.8,1.0,0.3529411764705882,0.0,0.2580645161290322,0.2222222222222222,0.725,0.0,0.35,0.4336734693877551,0.3371161548731641,0.5368786745056119,0.0,0.1666666666666666,1.0,1.0,1.0,1.0,2
0.083500334001336,0.0,0.0799999999999999,1.0,0.1176470588235294,1.0,0.3387096774193548,0.4444444444444445,0.8916666666666667,0.1428571428571428,0.45,0.0459183673469387,0.5567423230974633,0.8556921432389096,0.1428571428571429,0.2777777777777778,0.4999999999999999,1.0,0.0,1.0,2
0.169004676018704,0.0,0.0,1.0,0.4117647058823529,1.0,0.9193548387096774,0.6666666666666666,0.8166666666666668,0.8571428571428572,0.5,0.976530612244898,0.9532710280373832,0.2060395510422233,0.0714285714285714,0.1666666666666666,0.1666666666666666,1.0,0.0,0.0,1
0.3881095524382097,0.0,0.12,0.0,0.0,0.0,0.5806451612903226,0.0,0.9833333333333332,1.0,0.25,0.503061224489796,0.4612817089452603,0.5561197220737573,0.0714285714285714,0.0555555555555555,0.8333333333333333,0.0,1.0,1.0,2
0.3259853039412158,1.0,0.4400000000000001,1.0,0.6470588235294118,1.0,0.3548387096774194,0.5555555555555555,0.6333333333333334,1.0,0.8500000000000001,0.313265306122449,0.1194926568758344,0.6849278460716194,0.7857142857142857,0.7222222222222222,0.1666666666666666,1.0,0.0,1.0,2
0.4061456245824983,0.0,0.6400000000000001,0.0,0.0588235294117647,0.0,0.5161290322580645,0.0,0.775,0.0,0.2,0.0841836734693877,0.4025367156208277,0.685462319615179,0.5714285714285714,0.2777777777777778,0.8333333333333333,1.0,0.0,1.0,2
0.2017368069472278,0.0,0.12,1.0,0.0,0.0,0.2580645161290322,0.2222222222222222,0.2166666666666666,0.4285714285714285,0.05,0.3198979591836735,0.2903871829105473,0.680117584179583,0.9285714285714284,0.8333333333333333,0.5555555555555556,0.0,1.0,0.0,2
0.6285905143620575,0.0,0.0399999999999999,1.0,0.0588235294117647,0.0,0.4032258064516129,0.3333333333333333,0.3916666666666667,0.5714285714285714,0.4,0.1357142857142857,0.0947930574098798,0.1964190272581507,0.6428571428571429,0.4444444444444444,0.2777777777777777,1.0,0.0,0.0,0
0.3340013360053441,0.0,0.92,1.0,0.0588235294117647,0.0,0.6129032258064516,0.1111111111111111,0.3083333333333333,0.2857142857142857,0.35,0.4704081632653061,0.8918558077436582,0.9080705505077498,0.5714285714285714,0.5,0.4444444444444445,1.0,1.0,1.0,3
0.2905811623246493,1.0,0.72,0.0,0.2941176470588235,1.0,0.8870967741935484,0.1111111111111111,0.4083333333333333,0.1428571428571428,0.3,0.3352040816326531,0.2923898531375166,0.4791555318011757,0.5,0.4444444444444444,0.1666666666666666,1.0,1.0,0.0,1
0.4114896459585838,1.0,0.0,1.0,0.1176470588235294,0.0,0.3064516129032257,0.0,0.8083333333333335,0.1428571428571428,0.95,0.2525510204081633,0.3571428571428571,0.465793693212186,0.7142857142857143,0.5,0.0,1.0,0.0,1.0,1
0.1222444889779559,1.0,0.16,1.0,0.1764705882352941,1.0,0.9838709677419356,1.0,0.6416666666666667,0.5714285714285714,0.45,0.0811224489795918,0.8264352469959946,0.935328701229289,0.8571428571428571,0.2777777777777778,0.5555555555555556,1.0,1.0,1.0,3
0.3032732130928524,0.0,0.0,1.0,0.2352941176470588,0.0,0.6612903225806451,0.8888888888888888,0.525,0.5714285714285714,0.4,0.6367346938775511,0.6748998664886514,0.3142704436130411,0.5,0.5,0.3888888888888889,1.0,1.0,1.0,1
0.6820307281229125,0.0,0.6800000000000002,0.0,0.2352941176470588,0.0,0.3064516129032257,0.6666666666666666,0.6833333333333335,0.7142857142857142,0.55,0.2719387755102041,0.7983978638184246,0.9382683057188668,0.7142857142857143,0.5,0.7777777777777777,0.0,0.0,1.0,3
0.3152972611890448,0.0,0.0,1.0,0.2941176470588235,0.0,0.8225806451612904,0.4444444444444445,0.9666666666666668,0.5714285714285714,0.35,0.0535714285714285,0.0587449933244325,0.428915018706574,0.5714285714285714,0.5555555555555556,0.7777777777777777,0.0,1.0,0.0,1
0.0828323313293253,0.0,0.8800000000000001,1.0,0.1176470588235294,0.0,0.6451612903225806,0.7777777777777778,0.4833333333333333,1.0,0.15,0.1035714285714285,0.8484646194926568,0.714323890967397,0.3571428571428571,0.2222222222222222,0.8333333333333333,1.0,0.0,0.0,2
0.1930527722110888,0.0,0.0,1.0,0.4117647058823529,1.0,0.6774193548387097,0.0,0.075,1.0,0.4,0.5612244897959184,0.6255006675567423,0.8466060929983965,0.5714285714285714,0.611111111111111,0.3888888888888889,1.0,1.0,0.0,3
0.2044088176352706,0.0,0.0,0.0,0.5294117647058824,0.0,0.0967741935483871,0.2222222222222222,0.65,0.5714285714285714,1.0,0.3403061224489796,0.1315086782376501,0.2747194013896312,0.8571428571428571,0.7222222222222222,0.0,0.0,1.0,1.0,0
0.4649298597194389,1.0,0.0,1.0,0.5294117647058824,0.0,0.2903225806451612,0.0,0.4083333333333333,0.5714285714285714,0.5,0.1091836734693877,0.8077436582109478,0.702565473009086,1.0,0.3888888888888888,0.6666666666666665,1.0,1.0,1.0,2
0.5865063460253842,1.0,0.6400000000000001,1.0,0.8235294117647058,1.0,0.9838709677419356,1.0,0.025,0.0,0.8500000000000001,0.1056122448979591,0.5807743658210948,0.1055585248530197,0.2857142857142857,0.3333333333333333,0.2777777777777777,1.0,1.0,0.0,0
0.4622578490313962,0.0,0.16,0.0,0.6470588235294118,0.0,0.3870967741935484,0.4444444444444445,0.7166666666666667,0.0,1.0,0.3724489795918367,0.8204272363150868,0.0748262960983431,0.8571428571428571,0.7777777777777777,0.1111111111111111,1.0,0.0,1.0,0
0.4702738810955245,0.0,0.0,1.0,0.1764705882352941,0.0,0.1612903225806451,0.5555555555555555,0.7916666666666666,0.4285714285714285,0.3,0.2923469387755102,0.076101468624833,0.1614110101549973,0.6428571428571429,0.0555555555555555,0.6666666666666665,1.0,0.0,1.0,0
0.2905811623246493,0.0,0.2,0.0,0.0588235294117647,0.0,0.2580645161290322,0.1111111111111111,0.6083333333333333,0.2857142857142857,0.9,0.6785714285714286,0.7917222963951935,0.5705505077498664,0.5,0.3333333333333333,0.0555555555555555,1.0,1.0,1.0,2
0.8884435537742152,1.0,0.6800000000000002,1.0,0.2352941176470588,0.0,0.8548387096774194,1.0,0.9083333333333332,1.0,0.45,0.8637755102040817,0.8611481975967956,0.2343666488508818,0.6428571428571429,0.1666666666666666,0.4444444444444445,0.0,1.0,0.0,1
0.8597194388777556,1.0,0.0,1.0,0.8823529411764706,1.0,0.0,0.2222222222222222,0.5833333333333334,0.7142857142857142,1.0,0.2408163265306122,0.3825100133511347,0.6411010154997328,0.5,0.1111111111111111,0.1111111111111111,1.0,0.0,1.0,2
0.0861723446893787,0.0,0.6000000000000001,0.0,0.5294117647058824,1.0,0.1935483870967742,0.4444444444444445,0.8333333333333334,1.0,0.65,0.0336734693877551,0.6328437917222963,0.2554783538214858,0.5,0.4444444444444444,0.5555555555555556,1.0,0.0,0.0,0
0.0013360053440213,0.0,0.2799999999999999,1.0,0.2941176470588235,1.0,0.0967741935483871,0.3333333333333333,0.2583333333333333,0.2857142857142857,0.65,0.1025510204081632,0.4973297730307076,0.6218599679315874,0.4285714285714286,0.0,0.5555555555555556,1.0,0.0,0.0,1
0.7722110888443554,1.0,0.76,0.0,0.1764705882352941,0.0,0.6451612903225806,0.0,0.9833333333333332,0.5714285714285714,0.8,0.903061224489796,0.8651535380507342,0.6256012827365045,0.9285714285714284,0.0555555555555555,0.6666666666666665,1.0,0.0,0.0,3
0.1903807615230461,0.0,0.6800000000000002,1.0,0.0,0.0,0.5,0.4444444444444445,0.5083333333333334,0.8571428571428572,0.3,0.2586734693877551,0.7990654205607477,0.5702832709780865,0.5,0.611111111111111,0.1666666666666666,1.0,0.0,1.0,2
0.3333333333333333,0.0,0.8800000000000001,0.0,0.0588235294117647,1.0,0.9032258064516128,1.0,0.4583333333333333,0.5714285714285714,0.6000000000000001,0.235204081632653,0.2222963951935914,0.1619454836985569,0.1428571428571429,0.0,1.0,1.0,0.0,0.0,0
0.1750167000668002,0.0,0.48,1.0,0.4705882352941176,1.0,0.0,0.4444444444444445,0.0999999999999999,1.0,0.7000000000000001,0.5244897959183674,0.4579439252336448,0.2121859967931587,0.0714285714285714,0.2222222222222222,0.3333333333333333,1.0,1.0,0.0,0
0.1823647294589179,0.0,0.0,1.0,0.1176470588235294,1.0,0.1290322580645161,0.4444444444444445,0.9,0.1428571428571428,0.45,0.7551020408163266,0.8217623497997328,0.718332442544094,0.2142857142857143,0.3333333333333333,0.0,1.0,1.0,1.0,2
0.8750835003340014,1.0,0.0,1.0,0.0,0.0,0.4838709677419355,1.0,0.2916666666666667,0.7142857142857142,0.0,0.1040816326530612,0.4218958611481975,0.0245857830037413,0.8571428571428571,0.611111111111111,0.8888888888888888,1.0,0.0,1.0,0
0.3219772879091517,0.0,0.0399999999999999,1.0,0.0,1.0,0.6935483870967742,0.0,0.4166666666666666,0.4285714285714285,0.55,0.4836734693877551,0.4706275033377837,0.4799572421165152,0.0,0.1666666666666666,0.2222222222222222,1.0,0.0,1.0,1
0.2358049432197729,0.0,0.2,0.0,0.2941176470588235,1.0,0.2419354838709677,0.8888888888888888,0.175,0.4285714285714285,0.45,0.3724489795918367,0.4325767690253671,0.7640299305184393,0.1428571428571429,0.0,0.0,1.0,0.0,0.0,2
0.3326653306613226,0.0,0.8400000000000001,1.0,0.6470588235294118,1.0,0.8709677419354839,1.0,0.7083333333333334,0.4285714285714285,0.65,0.1744897959183673,0.7616822429906542,0.7554783538214858,0.2142857142857143,0.2222222222222222,0.4999999999999999,1.0,1.0,1.0,2
0.6205744822979292,0.0,0.0,1.0,0.0588235294117647,0.0,0.4032258064516129,0.4444444444444445,0.8583333333333333,0.0,0.8,0.5775510204081633,0.4552736982643525,0.6884019241047568,0.1428571428571429,0.0555555555555555,0.7222222222222221,0.0,1.0,1.0,2
0.4281897127588511,1.0,0.2799999999999999,0.0,0.0,0.0,0.0,0.5555555555555555,0.2833333333333333,0.7142857142857142,0.0,0.3178571428571429,0.1795727636849131,0.3984500267236771,0.1428571428571429,0.0,0.6666666666666665,0.0,1.0,0.0,1
0.4635938543754175,1.0,0.92,0.0,0.0588235294117647,1.0,0.2903225806451612,0.7777777777777778,0.25,0.1428571428571428,0.7000000000000001,0.806122448979592,0.7690253671562082,0.0662747194013896,0.2857142857142857,0.1666666666666666,0.5555555555555556,1.0,1.0,0.0,0
0.6092184368737475,1.0,0.0,1.0,0.2352941176470588,1.0,0.6935483870967742,0.3333333333333333,0.2,0.5714285714285714,0.3,0.9943877551020408,0.9973297730307076,0.7260823089257081,0.8571428571428571,0.4444444444444444,0.7222222222222221,1.0,0.0,1.0,3
0.6379425517702072,1.0,0.0,1.0,0.4117647058823529,0.0,0.0806451612903225,0.3333333333333333,0.2083333333333333,0.5714285714285714,0.6000000000000001,0.4198979591836735,0.4032042723631508,0.3556921432389096,0.0714285714285714,0.2777777777777778,1.0,1.0,0.0,1.0,1
0.4602538410153641,1.0,0.6800000000000002,1.0,0.5294117647058824,0.0,0.7258064516129032,0.2222222222222222,0.8833333333333334,0.7142857142857142,0.5,0.7229591836734695,0.6281708945260347,0.0983431320149652,0.2857142857142857,0.1666666666666666,0.9444444444444444,1.0,1.0,1.0,0
0.2010688042752171,1.0,0.76,1.0,0.0588235294117647,0.0,0.6935483870967742,0.7777777777777778,0.6416666666666667,0.2857142857142857,0.45,0.6627551020408163,0.7563417890520694,0.9238375200427578,0.2142857142857143,0.1666666666666666,0.3333333333333333,0.0,0.0,0.0,3
0.3346693386773547,0.0,0.8800000000000001,1.0,0.9411764705882352,1.0,0.1451612903225806,0.3333333333333333,0.8750000000000001,0.7142857142857142,0.9,0.1454081632653061,0.0080106809078771,0.1884019241047568,0.3571428571428571,0.3888888888888888,0.9444444444444444,1.0,0.0,1.0,0
0.2171008684034736,1.0,0.76,1.0,0.0,1.0,0.9032258064516128,0.2222222222222222,0.0666666666666666,0.4285714285714285,0.05,0.0913265306122449,0.1909212283044058,0.6966862640299305,0.2857142857142857,0.1666666666666666,0.8888888888888888,1.0,0.0,1.0,2
0.1723446893787575,0.0,0.8,0.0,0.1764705882352941,1.0,0.5967741935483871,0.2222222222222222,0.6833333333333335,0.1428571428571428,0.4,0.0561224489795918,0.5453938584779706,0.1902725815072153,0.0714285714285714,0.1111111111111111,0.0,1.0,0.0,0.0,0
0.8690714762859053,0.0,0.8800000000000001,1.0,0.0,1.0,0.1290322580645161,0.5555555555555555,0.175,0.8571428571428572,0.45,0.1290816326530612,0.0600801068090787,0.1175841795831106,0.6428571428571429,0.3888888888888888,0.0555555555555555,1.0,1.0,0.0,0
0.743486973947896,0.0,0.56,0.0,0.4705882352941176,1.0,0.8548387096774194,0.2222222222222222,0.9,0.2857142857142857,0.8500000000000001,0.4387755102040817,0.5540720961281709,0.977552111170497,0.8571428571428571,0.7222222222222222,0.6111111111111112,1.0,0.0,0.0,3
0.6052104208416834,1.0,0.76,0.0,0.0588235294117647,1.0,0.3225806451612903,0.6666666666666666,0.2,0.4285714285714285,0.2,0.5979591836734695,0.4786381842456608,0.5173703901656868,0.2857142857142857,0.3888888888888888,0.6111111111111112,1.0,0.0,1.0,2
0.7100868403473615,0.0,0.4000000000000001,1.0,0.0588235294117647,0.0,0.6451612903225806,0.6666666666666666,0.2333333333333334,0.1428571428571428,0.1,0.8260204081632654,0.9759679572763684,0.8337787279529663,0.1428571428571429,0.0,0.2777777777777777,0.0,1.0,0.0,3
0.6432865731462927,1.0,0.0,1.0,0.6470588235294118,0.0,0.1612903225806451,0.8888888888888888,0.3083333333333333,0.1428571428571428,0.7000000000000001,0.4357142857142858,0.4459279038718291,0.9810261892036344,0.0,0.1666666666666666,0.7222222222222221,0.0,1.0,1.0,3
0.3841015364061456,0.0,0.8,0.0,0.1764705882352941,0.0,0.1935483870967742,0.1111111111111111,0.2083333333333333,0.5714285714285714,0.2,0.2780612244897959,0.5340453938584779,0.477552111170497,0.1428571428571429,0.2777777777777778,0.6666666666666665,0.0,0.0,0.0,1
0.0694722778891115,0.0,0.4000000000000001,0.0,0.5294117647058824,1.0,0.2580645161290322,0.8888888888888888,0.6833333333333335,0.1428571428571428,0.7000000000000001,0.1678571428571428,0.1041388518024031,0.5464991982896846,0.7142857142857143,0.5,0.3333333333333333,1.0,0.0,0.0,1
0.5551102204408819,0.0,0.32,1.0,0.2941176470588235,1.0,0.0806451612903225,0.7777777777777778,0.7333333333333333,0.8571428571428572,0.95,0.4316326530612245,0.2369826435246995,0.6771779796900053,1.0,0.611111111111111,0.4444444444444445,1.0,1.0,0.0,2
0.6566466265865064,0.0,1.0000000000000002,0.0,0.1764705882352941,0.0,0.1612903225806451,0.5555555555555555,0.45,0.2857142857142857,0.25,0.4673469387755102,0.3130841121495327,0.320951362907536,0.6428571428571429,0.2222222222222222,1.0,1.0,1.0,0.0,1
0.0327321309285237,1.0,0.0,0.0,0.9411764705882352,1.0,0.3387096774193548,0.0,0.5416666666666666,0.1428571428571428,0.8500000000000001,0.2479591836734694,0.9546061415220292,0.0122928915018706,0.9285714285714284,0.2777777777777778,0.3333333333333333,1.0,0.0,0.0,0
0.7408149632598531,1.0,0.96,0.0,0.4117647058823529,1.0,1.0,0.8888888888888888,0.8416666666666667,0.4285714285714285,0.6000000000000001,0.6306122448979592,0.520694259012016,0.1830571886691608,0.2142857142857143,0.2222222222222222,0.3888888888888889,1.0,1.0,0.0,1
0.4662658650634603,1.0,0.8,1.0,0.8823529411764706,1.0,0.2258064516129032,0.1111111111111111,0.3,0.4285714285714285,1.0,0.5959183673469388,0.7022696929238985,0.8530197755211116,0.8571428571428571,0.7222222222222222,0.4444444444444445,1.0,0.0,1.0,3
0.7454909819639279,0.0,0.4000000000000001,0.0,0.0588235294117647,1.0,0.9838709677419356,0.6666666666666666,0.2583333333333333,0.1428571428571428,0.5,0.1397959183673469,0.3865153538050734,0.6675574559059326,1.0,0.5555555555555556,0.3333333333333333,1.0,1.0,1.0,2
0.7267869071476287,0.0,0.0399999999999999,0.0,0.0,0.0,0.0483870967741935,0.7777777777777778,0.2666666666666667,0.5714285714285714,0.1,0.3959183673469388,0.5987983978638184,0.8482095136290753,0.1428571428571429,0.2777777777777778,0.9444444444444444,1.0,1.0,1.0,3
0.8390113560454242,0.0,0.0,0.0,0.4705882352941176,0.0,0.7580645161290323,0.4444444444444445,0.8333333333333334,0.7142857142857142,0.7000000000000001,0.135204081632653,0.1421895861148197,0.4810261892036344,0.1428571428571429,0.2777777777777778,0.1111111111111111,0.0,0.0,0.0,1
0.9579158316633268,0.0,0.0,0.0,0.0,1.0,0.4354838709677419,0.5555555555555555,0.3666666666666666,0.5714285714285714,0.45,0.4112244897959184,0.240320427236315,0.0531801175841795,0.2857142857142857,0.1111111111111111,0.2222222222222222,1.0,0.0,1.0,0
0.7368069472277889,1.0,0.48,0.0,0.1176470588235294,0.0,0.5,1.0,0.925,1.0,0.25,0.0683673469387755,0.2930574098798397,0.1763762693746659,0.5714285714285714,0.5555555555555556,0.5555555555555556,0.0,1.0,1.0,0
0.9298597194388778,1.0,0.6400000000000001,1.0,0.4705882352941176,0.0,0.9838709677419356,0.1111111111111111,0.45,0.1428571428571428,0.55,0.325,0.1755674232309746,0.9529663281667556,0.6428571428571429,0.1666666666666666,0.8888888888888888,0.0,1.0,1.0,3
0.4789579158316633,1.0,0.92,1.0,0.1764705882352941,0.0,0.5967741935483871,0.7777777777777778,0.5833333333333334,0.8571428571428572,0.7000000000000001,0.5724489795918368,0.8317757009345794,0.3770710849812934,0.3571428571428571,0.0,0.5555555555555556,0.0,0.0,0.0,1
0.3219772879091517,0.0,0.52,0.0,0.0,1.0,0.8225806451612904,0.8888888888888888,0.8916666666666667,0.0,0.2,0.5107142857142858,0.4512683578104138,0.3027792624265099,0.8571428571428571,0.4444444444444444,0.3333333333333333,1.0,1.0,1.0,1
0.0814963259853039,1.0,0.16,0.0,0.0588235294117647,1.0,0.0161290322580645,0.0,0.1833333333333333,1.0,0.35,0.8923469387755103,0.8551401869158879,0.8768038482095135,0.7857142857142857,0.7222222222222222,0.0555555555555555,1.0,0.0,1.0,3
0.5965263861055445,1.0,0.16,1.0,0.5882352941176471,1.0,0.967741935483871,0.2222222222222222,0.7916666666666666,0.5714285714285714,0.65,0.5153061224489797,0.7109479305740987,0.0579903794762159,0.4285714285714286,0.0555555555555555,1.0,1.0,1.0,0.0,0
0.743486973947896,0.0,0.2799999999999999,0.0,0.0588235294117647,1.0,0.1129032258064516,0.0,0.6749999999999999,0.2857142857142857,0.1,0.0882653061224489,0.479973297730307,0.4211651523249599,0.7142857142857143,0.4444444444444444,0.4999999999999999,1.0,0.0,0.0,1
0.8964595858383435,1.0,0.52,1.0,0.7647058823529411,1.0,0.2258064516129032,0.6666666666666666,0.45,0.7142857142857142,0.9,0.060204081632653,0.0534045393858477,0.7902191341528594,0.7142857142857143,0.7777777777777777,0.7222222222222221,1.0,1.0,0.0,3
0.3079492317969272,0.0,0.2,1.0,0.8235294117647058,0.0,0.0,0.8888888888888888,0.3750000000000001,0.0,1.0,0.8255102040816328,0.945260347129506,0.3300374131480491,0.7857142857142857,0.1111111111111111,0.6666666666666665,1.0,0.0,0.0,1
0.802939211756847,1.0,0.0,0.0,0.2941176470588235,1.0,0.3387096774193548,0.1111111111111111,0.0999999999999999,0.7142857142857142,0.35,0.0683673469387755,0.014018691588785,0.1435061464457509,0.1428571428571429,0.1666666666666666,0.8333333333333333,1.0,1.0,0.0,0
0.0527722110888443,1.0,0.2799999999999999,1.0,0.0,0.0,0.7258064516129032,0.8888888888888888,0.0916666666666666,0.2857142857142857,0.05,0.5540816326530613,0.5640854472630173,0.853821485836451,0.7142857142857143,0.0555555555555555,0.4999999999999999,1.0,1.0,0.0,3
0.6860387441549767,0.0,0.76,0.0,0.1176470588235294,0.0,0.5645161290322581,0.1111111111111111,0.6333333333333334,1.0,0.15,0.1561224489795918,0.0427236315086781,0.1274719401389631,0.7142857142857143,0.0,0.6666666666666665,1.0,1.0,0.0,0
0.5544422177688711,0.0,0.0,0.0,0.4705882352941176,0.0,0.8548387096774194,0.8888888888888888,0.5499999999999999,0.2857142857142857,0.75,0.5928571428571429,0.6882510013351135,0.3944414751469802,0.0714285714285714,0.1111111111111111,0.4999999999999999,1.0,0.0,1.0,1
0.2344689378757515,0.0,0.52,1.0,0.2941176470588235,1.0,0.0967741935483871,0.7777777777777778,0.6666666666666666,0.5714285714285714,0.45,0.348469387755102,0.5667556742323098,0.015766969535008,0.1428571428571429,0.3333333333333333,1.0,1.0,0.0,0.0,0
0.976619906479626,1.0,0.2,0.0,0.9411764705882352,1.0,0.5161290322580645,0.0,0.6416666666666667,0.1428571428571428,0.8500000000000001,0.5795918367346939,0.8765020026702268,0.1223944414751469,0.9285714285714284,0.1111111111111111,0.0,1.0,0.0,1.0,1
0.5731462925851704,1.0,0.0,1.0,0.0588235294117647,1.0,0.9032258064516128,0.4444444444444445,0.2249999999999999,0.7142857142857142,0.15,0.2275510204081632,0.2676902536715621,0.2191341528594334,0.7857142857142857,0.4444444444444444,0.1111111111111111,1.0,1.0,1.0,0
0.1075484301937207,0.0,0.0,0.0,0.2941176470588235,0.0,0.2903225806451612,0.7777777777777778,0.4833333333333333,0.0,0.5,0.5107142857142858,0.4833110814419226,0.4994655264564404,0.8571428571428571,0.8333333333333333,0.7222222222222221,0.0,1.0,1.0,1
0.7955911823647295,0.0,0.72,1.0,0.2352941176470588,1.0,0.7096774193548387,0.8888888888888888,0.4916666666666666,0.0,0.3,0.3438775510204082,0.9512683578104136,0.3041154462854089,0.7857142857142857,0.5555555555555556,0.2222222222222222,1.0,1.0,0.0,1
0.4442217768871076,0.0,0.4000000000000001,1.0,0.0,1.0,0.6612903225806451,0.7777777777777778,0.0,0.4285714285714285,0.05,0.1045918367346938,0.068758344459279,0.998663816141101,0.1428571428571429,0.0555555555555555,0.2777777777777777,1.0,1.0,0.0,3
0.8303273213092854,0.0,0.92,0.0,0.0,1.0,0.967741935483871,0.6666666666666666,0.65,0.0,0.0,0.3168367346938776,0.7062750333778371,0.0237840726884019,0.3571428571428571,0.3333333333333333,0.6666666666666665,1.0,0.0,0.0,0
0.3293253173012692,0.0,0.2799999999999999,1.0,0.2352941176470588,0.0,0.6129032258064516,0.8888888888888888,0.7000000000000001,0.1428571428571428,0.8500000000000001,0.1510204081632653,0.2263017356475299,0.7610903260288615,0.8571428571428571,0.3888888888888888,0.4999999999999999,0.0,0.0,0.0,2
0.8844355377421511,0.0,0.24,1.0,0.7647058823529411,1.0,0.2419354838709677,0.0,0.6416666666666667,0.4285714285714285,0.9,0.8270408163265307,0.849799732977303,0.7680384820951363,0.5,0.2222222222222222,0.0,1.0,0.0,1.0,3
0.0981963927855711,1.0,0.0,1.0,0.5294117647058824,1.0,0.8387096774193549,0.3333333333333333,0.2416666666666667,0.5714285714285714,1.0,0.588265306122449,0.8791722296395192,0.7664350614644575,0.0,0.0,0.6111111111111112,1.0,0.0,0.0,3
0.1516366065464262,0.0,0.48,1.0,0.0,1.0,0.0483870967741935,0.5555555555555555,0.175,0.1428571428571428,1.0,0.2979591836734694,0.1835781041388517,0.1544628540887226,0.7857142857142857,0.0,0.1666666666666666,1.0,1.0,0.0,0
0.8243152972611891,0.0,0.52,1.0,0.9411764705882352,0.0,0.5161290322580645,0.0,0.5000000000000001,0.1428571428571428,0.8500000000000001,0.0760204081632653,0.2510013351134846,0.5708177445216461,0.8571428571428571,0.8333333333333333,0.9444444444444444,1.0,0.0,1.0,2
0.5771543086172345,0.0,0.0399999999999999,0.0,0.0,1.0,0.467741935483871,0.2222222222222222,0.3750000000000001,0.4285714285714285,0.0,0.1494897959183673,0.3137516688918558,0.2789951897381079,0.6428571428571429,0.3888888888888888,0.6111111111111112,1.0,0.0,1.0,0
0.3059452237808951,1.0,0.8400000000000001,1.0,0.8823529411764706,0.0,0.2903225806451612,1.0,0.0333333333333333,0.4285714285714285,0.95,0.2862244897959184,0.7550066755674232,0.9911811865312664,0.7857142857142857,0.0555555555555555,0.2222222222222222,1.0,0.0,0.0,3
0.5651302605210422,0.0,0.96,0.0,0.2941176470588235,0.0,0.6774193548387097,0.5555555555555555,0.4333333333333334,0.0,0.7000000000000001,0.2214285714285714,0.3117489986648865,0.5954035275253875,0.9285714285714284,0.1111111111111111,0.4999999999999999,1.0,0.0,1.0,2
0.9031396125584504,1.0,0.2,0.0,0.1176470588235294,0.0,0.3387096774193548,0.3333333333333333,0.0999999999999999,0.0,0.75,0.1030612244897959,0.9686248331108144,0.6731694281133084,0.6428571428571429,0.2222222222222222,0.8333333333333333,1.0,0.0,0.0,3
0.3694054776219105,0.0,0.24,1.0,0.5882352941176471,1.0,0.5806451612903226,0.3333333333333333,0.4666666666666667,0.7142857142857142,0.6000000000000001,0.5596938775510205,0.4819759679572764,0.3792089791555317,0.9285714285714284,0.2222222222222222,0.6666666666666665,1.0,1.0,1.0,1
0.1376085504342017,0.0,0.6400000000000001,1.0,0.1176470588235294,0.0,0.3709677419354839,0.7777777777777778,0.4249999999999999,0.2857142857142857,0.8500000000000001,0.2525510204081633,0.0493991989319091,0.9572421165152324,0.2857142857142857,0.1111111111111111,0.2777777777777777,1.0,0.0,1.0,3
0.2905811623246493,0.0,0.0,1.0,0.8235294117647058,1.0,0.1935483870967742,0.0,0.7000000000000001,0.2857142857142857,0.8500000000000001,0.0765306122448979,0.7857142857142856,0.936664885088188,0.5714285714285714,0.0555555555555555,0.5555555555555556,1.0,0.0,0.0,3
0.1983967935871744,1.0,0.0,1.0,0.4117647058823529,0.0,0.0,0.7777777777777778,0.5666666666666668,0.1428571428571428,0.75,0.2535714285714286,0.0847797062750333,0.8917691074291821,0.6428571428571429,0.5,0.0555555555555555,0.0,1.0,0.0,2
0.991983967935872,0.0,0.8800000000000001,1.0,0.1764705882352941,1.0,1.0,0.1111111111111111,0.6833333333333335,0.4285714285714285,1.0,0.1204081632653061,0.6809078771695594,0.2995724211651523,0.0,0.1666666666666666,0.7222222222222221,1.0,1.0,1.0,1
0.0280561122244489,1.0,0.0,1.0,0.2352941176470588,1.0,0.935483870967742,0.6666666666666666,0.4333333333333334,0.5714285714285714,0.35,0.3535714285714286,0.3544726301735647,0.1809192944949225,0.6428571428571429,0.0,0.1666666666666666,1.0,1.0,0.0,0
0.8056112224448899,0.0,0.3599999999999999,0.0,0.0,0.0,0.6290322580645161,0.7777777777777778,0.0,0.8571428571428572,0.1,0.6790816326530613,0.5927903871829105,0.4056654195617316,0.5,0.0,0.4444444444444445,0.0,0.0,0.0,2
0.7181028724114897,1.0,0.6000000000000001,0.0,0.0,1.0,0.2903225806451612,0.5555555555555555,0.5666666666666668,0.2857142857142857,0.0,0.2091836734693877,0.7016021361815754,0.3001068947087119,0.8571428571428571,0.0555555555555555,0.7777777777777777,1.0,0.0,1.0,1
0.468937875751503,1.0,0.0,1.0,0.0,1.0,0.1451612903225806,0.8888888888888888,0.2416666666666667,0.1428571428571428,0.6000000000000001,0.0178571428571428,0.0066755674232309,0.3784072688401924,0.8571428571428571,0.7222222222222222,0.9444444444444444,1.0,1.0,0.0,0
0.997995991983968,1.0,0.56,0.0,0.3529411764705882,0.0,0.1129032258064516,0.7777777777777778,0.4916666666666666,0.7142857142857142,0.9,0.9336734693877552,0.9766355140186916,0.2530732228754676,0.6428571428571429,0.6666666666666666,0.8888888888888888,1.0,1.0,1.0,2
0.726118904475618,1.0,0.8,0.0,0.7058823529411764,1.0,0.032258064516129,0.2222222222222222,0.5666666666666668,0.5714285714285714,1.0,0.0744897959183673,0.2149532710280374,0.601282736504543,0.0,0.1666666666666666,0.4999999999999999,1.0,0.0,0.0,2
0.3947895791583167,0.0,0.8800000000000001,1.0,0.4705882352941176,0.0,0.6935483870967742,0.7777777777777778,0.8750000000000001,0.0,0.5,0.7163265306122449,0.616822429906542,0.2797969000534473,0.5,0.1666666666666666,1.0,0.0,1.0,1.0,1
0.4188376753507015,1.0,0.24,0.0,0.5294117647058824,1.0,0.7096774193548387,0.8888888888888888,0.4583333333333333,1.0,0.5,0.3831632653061225,0.7222963951935915,0.3148049171566007,0.0,0.0,0.4999999999999999,1.0,0.0,0.0,1
0.3246492985971945,1.0,0.72,0.0,0.5294117647058824,0.0,0.2419354838709677,0.7777777777777778,0.3666666666666666,0.8571428571428572,0.8500000000000001,0.4525510204081633,0.5166889185580774,0.9698022447888828,0.4285714285714286,0.0,0.6666666666666665,1.0,1.0,0.0,3
0.4756179024716099,1.0,0.0,0.0,0.0,0.0,0.2258064516129032,0.4444444444444445,0.2333333333333334,0.5714285714285714,0.0,0.1153061224489796,0.4993324432576769,0.6531266702298235,0.5,0.1666666666666666,0.3888888888888889,0.0,0.0,1.0,2
0.4388777555110221,0.0,0.0799999999999999,1.0,0.0588235294117647,1.0,0.4354838709677419,0.6666666666666666,0.3583333333333333,0.1428571428571428,1.0,0.1586734693877551,0.8651535380507342,0.3436664885088187,0.8571428571428571,0.5,0.7222222222222221,1.0,0.0,1.0,1
0.4595858383433534,1.0,0.72,0.0,0.7647058823529411,0.0,0.0967741935483871,0.4444444444444445,0.9833333333333332,0.2857142857142857,0.7000000000000001,0.1933673469387755,0.2883845126835781,0.1702298236237306,0.2857142857142857,0.3333333333333333,0.6111111111111112,1.0,1.0,0.0,0
0.9525718102872414,0.0,0.16,1.0,0.1764705882352941,0.0,0.1451612903225806,0.3333333333333333,0.9166666666666666,1.0,0.6000000000000001,0.2505102040816326,0.6715620827770361,0.7108498129342598,0.7857142857142857,0.611111111111111,0.8888888888888888,0.0,1.0,1.0,3
0.3887775551102205,1.0,0.96,1.0,0.0588235294117647,1.0,1.0,0.7777777777777778,0.8166666666666668,0.2857142857142857,0.55,0.5229591836734694,0.4125500667556742,0.78941742383752,0.5714285714285714,0.1666666666666666,0.1111111111111111,1.0,0.0,0.0,3
0.3567134268537074,0.0,0.0,1.0,0.8235294117647058,1.0,0.7580645161290323,0.2222222222222222,0.8166666666666668,0.1428571428571428,0.75,0.2928571428571428,0.4479305740987983,0.9981293425975412,0.5,0.2222222222222222,0.9444444444444444,1.0,0.0,0.0,3
0.7067468269873081,1.0,0.32,1.0,0.5882352941176471,1.0,0.1290322580645161,0.2222222222222222,0.2833333333333333,1.0,0.8500000000000001,0.0596938775510204,0.1208277703604806,0.5203099946552645,0.1428571428571429,0.2777777777777778,0.7222222222222221,1.0,1.0,1.0,1
0.861055444221777,0.0,0.8,1.0,0.5294117647058824,0.0,0.0,0.0,0.8666666666666666,0.0,0.7000000000000001,0.3173469387755102,0.1949265687583444,0.2966328166755745,0.1428571428571429,0.0,1.0,1.0,1.0,1.0,1
0.7822311289245159,1.0,0.48,1.0,0.0588235294117647,1.0,0.6774193548387097,0.4444444444444445,0.7666666666666667,1.0,0.2,0.6377551020408164,0.6241655540720961,0.2918225547835382,0.4285714285714286,0.3333333333333333,0.2777777777777777,1.0,1.0,1.0,1
0.8169672678690716,0.0,0.6000000000000001,1.0,0.1176470588235294,1.0,0.8870967741935484,0.4444444444444445,0.8083333333333335,0.2857142857142857,0.25,0.8188775510204083,0.9506008010680906,0.6857295563869588,1.0,0.1666666666666666,0.7777777777777777,1.0,1.0,0.0,3
0.6987307949231798,0.0,0.96,1.0,0.3529411764705882,0.0,0.6935483870967742,0.6666666666666666,0.7166666666666667,0.1428571428571428,0.4,0.2974489795918367,0.0600801068090787,0.0665419561731694,0.5,0.1111111111111111,0.0555555555555555,0.0,1.0,1.0,0
0.5664662658650635,0.0,0.6000000000000001,1.0,0.8823529411764706,0.0,0.967741935483871,0.2222222222222222,0.2833333333333333,0.5714285714285714,0.8,0.3020408163265306,0.1815754339118824,0.6680919294494923,0.4285714285714286,0.1666666666666666,0.1111111111111111,1.0,0.0,0.0,2
0.9238476953907816,0.0,0.6400000000000001,1.0,0.4117647058823529,1.0,0.6612903225806451,0.7777777777777778,0.8750000000000001,0.0,0.9,0.2301020408163265,0.2129506008010681,0.8987172634954569,0.6428571428571429,0.4444444444444444,0.2777777777777777,1.0,1.0,1.0,3
0.809619238476954,1.0,0.6000000000000001,0.0,0.5294117647058824,1.0,0.0483870967741935,0.6666666666666666,0.9916666666666666,0.7142857142857142,0.8,0.0551020408163265,0.9766355140186916,0.3359166221272047,0.7142857142857143,0.3333333333333333,0.0,1.0,0.0,1.0,1
0.4555778223112893,1.0,0.0,1.0,0.1764705882352941,1.0,0.7419354838709677,0.0,0.3333333333333333,1.0,0.6000000000000001,0.136734693877551,0.3404539385847797,0.239444147514698,0.2142857142857143,0.1666666666666666,0.0555555555555555,1.0,0.0,0.0,0
0.0668002672010688,1.0,0.48,1.0,0.1764705882352941,1.0,0.064516129032258,0.7777777777777778,0.7416666666666666,0.4285714285714285,0.55,0.4173469387755102,0.8858477970627503,0.6400320684126135,0.6428571428571429,0.4444444444444444,0.3888888888888889,1.0,0.0,1.0,2
0.3887775551102205,1.0,0.96,1.0,0.0588235294117647,1.0,0.5967741935483871,1.0,0.775,1.0,0.1,0.2668367346938776,0.02803738317757,0.7995724211651523,0.2142857142857143,0.3333333333333333,0.2222222222222222,1.0,0.0,1.0,2
0.2605210420841684,0.0,0.0,1.0,0.5294117647058824,1.0,0.3709677419354839,0.2222222222222222,0.9666666666666668,0.1428571428571428,0.95,0.1913265306122449,0.8170894526034713,0.4855692143238909,0.1428571428571429,0.0555555555555555,0.4444444444444445,1.0,0.0,1.0,1
0.6072144288577155,1.0,0.0,1.0,0.0,1.0,0.2096774193548387,0.2222222222222222,0.0999999999999999,0.2857142857142857,0.05,0.0979591836734694,0.541388518024032,0.547300908605024,0.9285714285714284,0.2222222222222222,0.8888888888888888,1.0,1.0,0.0,2
0.548430193720775,0.0,0.48,1.0,0.3529411764705882,0.0,0.0806451612903225,0.7777777777777778,0.5000000000000001,0.2857142857142857,0.45,0.0903061224489796,0.9946595460614152,0.310529128808124,1.0,0.9444444444444444,0.5555555555555556,0.0,1.0,0.0,1
0.1309285237140949,0.0,0.8800000000000001,1.0,0.2941176470588235,1.0,0.2903225806451612,0.3333333333333333,0.775,0.1428571428571428,0.3,0.2438775510204081,0.6522029372496662,0.0008017103153393,0.5,0.3333333333333333,0.1111111111111111,1.0,1.0,1.0,0
0.6199064796259186,0.0,0.4000000000000001,1.0,0.0,1.0,0.6129032258064516,0.8888888888888888,0.1666666666666667,0.2857142857142857,0.7000000000000001,0.1255102040816326,0.2136181575433912,0.9858364510956708,0.4285714285714286,0.3888888888888888,0.8888888888888888,1.0,0.0,1.0,3
0.9345357381429528,1.0,0.72,0.0,0.0588235294117647,1.0,0.2580645161290322,0.1111111111111111,0.075,0.8571428571428572,0.45,0.538265306122449,0.7750333778371161,0.6988241582041689,0.5,0.0555555555555555,0.6111111111111112,1.0,1.0,1.0,3
0.5724782899131597,1.0,0.0,0.0,0.6470588235294118,1.0,0.5483870967741935,0.2222222222222222,0.6250000000000001,0.4285714285714285,0.7000000000000001,0.7984693877551021,0.9065420560747663,0.7514698022447888,0.2857142857142857,0.2222222222222222,0.1111111111111111,1.0,1.0,0.0,3
0.5978623914495659,0.0,0.76,1.0,0.0,0.0,0.7096774193548387,0.0,0.4833333333333333,0.8571428571428572,0.05,0.6076530612244898,0.5654205607476636,0.5700160342063068,0.1428571428571429,0.1666666666666666,0.7222222222222221,0.0,0.0,1.0,2
0.2678690714762859,1.0,0.0399999999999999,1.0,0.0,0.0,0.9838709677419356,0.6666666666666666,0.35,0.5714285714285714,0.7000000000000001,0.1857142857142857,0.5740987983978638,0.9080705505077498,0.9285714285714284,0.4444444444444444,0.7222222222222221,0.0,1.0,1.0,3
0.9592518370073482,1.0,0.48,0.0,1.0,0.0,0.9032258064516128,0.5555555555555555,0.9083333333333332,0.0,0.95,0.8816326530612246,0.8457943925233644,0.8190807055050774,0.0,0.2222222222222222,0.6666666666666665,1.0,1.0,0.0,3
0.683366733466934,1.0,0.52,1.0,0.0,0.0,0.1290322580645161,0.5555555555555555,0.7833333333333333,0.4285714285714285,0.05,0.0785714285714285,0.0333778371161548,0.647247461250668,0.7857142857142857,0.2777777777777778,0.6111111111111112,1.0,0.0,1.0,2
0.7508350033400135,1.0,0.0,1.0,0.1176470588235294,1.0,0.7741935483870968,0.0,0.2249999999999999,1.0,0.8500000000000001,0.0040816326530612,0.479973297730307,0.1106360235168359,0.7857142857142857,0.1666666666666666,0.3333333333333333,1.0,0.0,0.0,0
0.002004008016032,1.0,0.2,0.0,0.4705882352941176,0.0,0.1935483870967742,0.4444444444444445,0.9083333333333332,0.8571428571428572,0.45,0.4494897959183674,0.4198931909212282,0.3610368786745055,0.7142857142857143,0.0,0.4444444444444445,1.0,1.0,1.0,0
0.5110220440881764,0.0,0.56,1.0,0.0,1.0,0.0806451612903225,0.1111111111111111,0.8666666666666666,0.2857142857142857,0.6000000000000001,0.1765306122448979,0.6461949265687583,0.6082308925708177,0.3571428571428571,0.2777777777777778,0.1111111111111111,1.0,1.0,1.0,2
0.4081496325985304,1.0,0.0,1.0,0.0588235294117647,0.0,0.8225806451612904,0.5555555555555555,0.3416666666666667,0.4285714285714285,0.8,0.1193877551020408,0.1595460614152202,0.9083377872795296,0.1428571428571429,0.1666666666666666,1.0,1.0,1.0,0.0,3
0.0961923847695391,0.0,0.0,0.0,0.0588235294117647,0.0,0.6290322580645161,1.0,0.975,0.8571428571428572,0.5,0.1668367346938775,0.0534045393858477,0.7231427044361304,0.5,0.5,0.1111111111111111,1.0,1.0,1.0,2
0.9519038076152306,1.0,0.48,1.0,0.0588235294117647,1.0,0.5,0.3333333333333333,0.7666666666666667,0.2857142857142857,0.1,0.5010204081632653,0.4385847797062749,0.5964724746125066,0.0714285714285714,0.0555555555555555,0.6666666666666665,1.0,0.0,0.0,2
0.692050768203073,1.0,0.8,0.0,0.2352941176470588,1.0,0.6612903225806451,0.2222222222222222,0.475,0.0,0.25,0.4280612244897959,0.4212283044058744,0.9163548904329236,0.9285714285714284,0.9444444444444444,0.8333333333333333,1.0,1.0,1.0,3
0.1042084168336673,0.0,0.8,0.0,0.0,0.0,0.5645161290322581,0.6666666666666666,0.5083333333333334,0.1428571428571428,0.05,0.2428571428571428,0.3077436582109479,0.3089257081774452,0.6428571428571429,0.1666666666666666,0.8888888888888888,0.0,1.0,0.0,0
0.4442217768871076,0.0,0.6000000000000001,0.0,0.1764705882352941,1.0,0.3709677419354839,0.7777777777777778,0.9833333333333332,0.5714285714285714,0.2,0.0301020408163265,0.4692923898531375,0.5964724746125066,0.5714285714285714,0.2777777777777778,0.7222222222222221,1.0,0.0,0.0,2
0.3099532398129593,1.0,0.0,0.0,0.8823529411764706,0.0,0.8225806451612904,1.0,0.4249999999999999,1.0,0.95,0.1515306122448979,0.1021361815754339,0.7939604489577765,0.5,0.3333333333333333,0.3333333333333333,1.0,0.0,0.0,2
0.486305945223781,0.0,0.0,1.0,0.8823529411764706,0.0,0.1935483870967742,0.7777777777777778,0.925,0.1428571428571428,0.8,0.0612244897959183,0.9198931909212282,0.3770710849812934,0.8571428571428571,0.3333333333333333,0.8333333333333333,0.0,0.0,1.0,1
0.3099532398129593,1.0,0.3599999999999999,0.0,0.0588235294117647,0.0,0.1774193548387096,0.8888888888888888,0.975,1.0,0.1,0.3290816326530612,0.5173564753004005,0.5577231427044361,0.8571428571428571,0.6666666666666666,0.7222222222222221,1.0,0.0,0.0,2
0.2625250501002004,0.0,0.16,0.0,0.2941176470588235,1.0,0.8387096774193549,0.1111111111111111,0.4166666666666666,0.2857142857142857,0.75,0.0530612244897959,0.0273698264352469,0.6876002137894174,0.4285714285714286,0.2777777777777778,0.6111111111111112,1.0,0.0,1.0,2
0.715430861723447,0.0,0.0399999999999999,0.0,0.0,1.0,0.9032258064516128,0.1111111111111111,0.6416666666666667,0.8571428571428572,0.4,0.5658163265306123,0.959279038718291,0.5895243185462319,0.5,0.4444444444444444,0.4444444444444445,1.0,0.0,0.0,3
0.3827655310621243,0.0,0.76,1.0,0.1176470588235294,1.0,0.1129032258064516,0.8888888888888888,0.1916666666666666,0.7142857142857142,0.7000000000000001,0.4826530612244898,0.30173564753004,0.4521646178514162,0.5714285714285714,0.0555555555555555,0.8888888888888888,1.0,1.0,1.0,1
0.8911155644622579,1.0,0.72,0.0,0.2352941176470588,1.0,0.1451612903225806,0.0,0.9416666666666668,0.8571428571428572,0.65,0.1964285714285714,0.055407209612817,0.051309460181721,0.9285714285714284,0.9444444444444444,0.6666666666666665,1.0,0.0,0.0,0
0.7080828323313295,1.0,0.4400000000000001,1.0,0.0588235294117647,1.0,0.4032258064516129,0.7777777777777778,0.7833333333333333,0.2857142857142857,0.5,0.3377551020408164,0.2496662216288384,0.2536076964190272,0.5,0.3888888888888888,0.0555555555555555,1.0,1.0,0.0,1
0.7227788911155646,1.0,0.4400000000000001,0.0,0.2941176470588235,1.0,0.6451612903225806,0.7777777777777778,0.3166666666666666,0.2857142857142857,0.5,0.1403061224489796,0.2416555407209613,0.9075360769641904,0.6428571428571429,0.5555555555555556,0.3888888888888889,1.0,0.0,0.0,3
0.2538410153640614,0.0,0.2,0.0,0.0588235294117647,0.0,1.0,0.4444444444444445,0.6666666666666666,0.2857142857142857,0.3,0.0586734693877551,0.0907877169559412,0.4954569748797434,0.9285714285714284,0.5,0.2222222222222222,1.0,1.0,1.0,1
0.4468937875751504,0.0,0.96,1.0,0.1176470588235294,0.0,0.6129032258064516,0.3333333333333333,0.7416666666666666,0.7142857142857142,0.25,0.2178571428571429,0.1228304405874499,0.5638695884553714,0.7857142857142857,0.4444444444444444,0.0,1.0,1.0,1.0,1
0.3874415497661991,1.0,0.56,1.0,0.7647058823529411,1.0,0.6451612903225806,0.0,0.175,0.8571428571428572,0.8500000000000001,0.0423469387755102,0.2109479305740987,0.5879208979155531,0.1428571428571429,0.2222222222222222,0.2777777777777777,1.0,0.0,0.0,1
0.2304609218436873,1.0,0.8400000000000001,0.0,0.0,1.0,0.9032258064516128,0.0,0.3583333333333333,0.4285714285714285,0.75,0.5816326530612246,0.9899866488651534,0.5323356493853554,0.7857142857142857,0.4444444444444444,0.6111111111111112,1.0,0.0,0.0,2
0.1823647294589179,1.0,0.0399999999999999,1.0,0.1176470588235294,1.0,0.0967741935483871,0.3333333333333333,0.4666666666666667,0.0,0.2,0.8739795918367348,0.911214953271028,0.630144307856761,0.1428571428571429,0.0,0.6666666666666665,1.0,1.0,1.0,2
0.4575818303273213,1.0,0.0,1.0,0.1176470588235294,0.0,0.3064516129032257,0.3333333333333333,0.6666666666666666,1.0,0.2,0.0346938775510204,0.0560747663551401,0.5625334045964724,0.8571428571428571,0.4444444444444444,0.2777777777777777,1.0,0.0,0.0,1
0.6165664662658651,1.0,0.96,1.0,0.0,0.0,0.2903225806451612,0.5555555555555555,0.8333333333333334,0.5714285714285714,0.0,0.0923469387755102,0.466622162883845,0.6419027258150721,0.7142857142857143,0.0,0.9444444444444444,1.0,0.0,0.0,2
0.7568470273881096,1.0,0.3599999999999999,0.0,0.0588235294117647,1.0,0.2419354838709677,0.1111111111111111,1.0,0.1428571428571428,0.25,0.4918367346938776,0.7857142857142856,0.7415820416889364,0.4285714285714286,0.3333333333333333,0.2222222222222222,1.0,1.0,1.0,3
0.0066800267201069,0.0,0.16,1.0,0.8823529411764706,1.0,0.3548387096774194,0.5555555555555555,0.4666666666666667,0.2857142857142857,0.9,0.1872448979591837,0.5100133511348465,0.567076429716729,0.9285714285714284,0.1666666666666666,0.1111111111111111,1.0,0.0,0.0,1
0.995991983967936,1.0,0.0399999999999999,1.0,0.6470588235294118,0.0,0.0,0.0,0.5083333333333334,0.0,0.7000000000000001,0.3311224489795918,0.2636849132176234,0.7883484767504008,0.3571428571428571,0.5,0.4444444444444445,1.0,1.0,0.0,3
0.9652638610554444,0.0,0.8800000000000001,1.0,0.4705882352941176,0.0,0.0967741935483871,0.2222222222222222,0.3583333333333333,1.0,0.95,0.3301020408163265,0.9005340453938584,0.7645644040619989,0.0714285714285714,0.0,0.0,1.0,0.0,0.0,3
0.2458249832999333,0.0,0.32,1.0,0.1764705882352941,0.0,0.5161290322580645,0.0,0.2,0.1428571428571428,0.2,0.2438775510204081,0.0260347129506007,0.964190272581507,0.5714285714285714,0.1666666666666666,0.4999999999999999,1.0,0.0,0.0,3
0.7835671342685371,0.0,0.92,1.0,0.0,1.0,0.8064516129032258,0.1111111111111111,0.075,0.2857142857142857,0.35,0.7306122448979593,0.7670226969292389,0.4740780331373596,0.1428571428571429,0.0,0.2222222222222222,1.0,0.0,0.0,2
0.5537742150968604,0.0,0.24,0.0,0.6470588235294118,0.0,0.5645161290322581,0.6666666666666666,0.3833333333333334,0.8571428571428572,1.0,0.5627551020408164,0.7590120160213618,0.510422234099412,0.3571428571428571,0.0555555555555555,0.1111111111111111,1.0,0.0,0.0,2
0.5330661322645291,0.0,0.92,1.0,0.1176470588235294,0.0,0.935483870967742,0.7777777777777778,0.8916666666666667,1.0,0.3,0.6801020408163266,0.8931909212283045,0.3089257081774452,0.5714285714285714,0.0555555555555555,1.0,0.0,1.0,1.0,1
0.2972611890447562,1.0,0.8400000000000001,1.0,1.0,0.0,0.0483870967741935,0.0,0.7166666666666667,0.2857142857142857,1.0,0.866326530612245,0.8484646194926568,0.9257081774452164,0.7142857142857143,0.3888888888888888,0.1111111111111111,0.0,1.0,0.0,3
0.0040080160320641,1.0,0.56,1.0,0.0,1.0,0.5967741935483871,0.6666666666666666,0.5166666666666667,0.0,0.0,0.0086734693877551,0.3898531375166889,0.4991982896846605,0.0714285714285714,0.0,0.5555555555555556,1.0,1.0,0.0,1
0.1429525718102872,0.0,0.72,1.0,0.2352941176470588,0.0,0.7419354838709677,0.0,0.6666666666666666,0.4285714285714285,0.3,0.0107142857142857,0.041388518024032,0.9227685729556386,0.6428571428571429,0.1111111111111111,0.4444444444444445,0.0,0.0,0.0,2
0.1957247828991316,0.0,0.8,1.0,0.8823529411764706,0.0,0.1935483870967742,0.5555555555555555,0.975,0.2857142857142857,0.95,0.1591836734693877,0.5847797062750334,0.511758417958311,1.0,0.4444444444444444,0.8888888888888888,0.0,0.0,1.0,1
0.802939211756847,1.0,0.0,0.0,0.0,1.0,0.3225806451612903,0.5555555555555555,0.9333333333333336,0.0,0.0,0.1459183673469387,0.4906542056074766,0.2111170497060395,0.0,0.2222222222222222,0.6111111111111112,1.0,0.0,1.0,0
0.6980627922511691,1.0,0.0,1.0,0.1764705882352941,1.0,0.064516129032258,0.1111111111111111,0.175,0.0,0.2,0.0464285714285714,0.5453938584779706,0.8725280598610368,0.7142857142857143,0.611111111111111,0.3888888888888889,1.0,0.0,0.0,3
0.9091516366065466,0.0,0.4000000000000001,0.0,0.0588235294117647,0.0,0.967741935483871,1.0,0.85,0.0,0.1,0.1969387755102041,0.3644859813084111,0.2033671833244254,0.4285714285714286,0.1666666666666666,0.3888888888888889,1.0,0.0,0.0,1
0.4609218436873747,0.0,0.76,1.0,0.1176470588235294,0.0,0.1774193548387096,0.8888888888888888,0.7416666666666666,0.0,0.35,0.0913265306122449,0.8765020026702268,0.2063067878140032,0.6428571428571429,0.3333333333333333,0.3333333333333333,1.0,1.0,1.0,0
0.1449565798263193,1.0,0.4400000000000001,1.0,0.0588235294117647,1.0,0.4516129032258065,0.3333333333333333,0.1083333333333333,0.2857142857142857,0.6000000000000001,0.3377551020408164,0.3317757009345794,0.3594334580438268,0.3571428571428571,0.5,0.5555555555555556,1.0,1.0,1.0,1
0.0881763527054108,1.0,0.6800000000000002,0.0,0.0,1.0,0.7580645161290323,0.0,0.4916666666666666,1.0,0.05,0.2698979591836735,0.3397863818424566,0.8829502939604489,0.4285714285714286,0.0555555555555555,0.7777777777777777,1.0,1.0,1.0,2
0.2030728122912491,0.0,0.12,0.0,0.0588235294117647,0.0,0.5161290322580645,0.5555555555555555,0.0666666666666666,0.7142857142857142,0.1,0.6438775510204082,0.692923898531375,0.9061998931052913,0.9285714285714284,0.611111111111111,0.3888888888888889,1.0,0.0,1.0,3
0.7448229792919172,1.0,0.72,1.0,0.1764705882352941,0.0,0.8064516129032258,0.0,0.1666666666666667,0.5714285714285714,0.4,0.0770408163265306,0.4225634178905206,0.1071619454836985,0.1428571428571429,0.1666666666666666,0.0,1.0,1.0,0.0,0
0.4408817635270542,0.0,0.32,1.0,0.0,1.0,0.3064516129032257,0.5555555555555555,0.3833333333333334,1.0,0.6000000000000001,0.1571428571428571,0.4465954606141522,0.8230892570817744,0.0714285714285714,0.2222222222222222,0.6666666666666665,1.0,0.0,1.0,3
0.9899799599198398,1.0,0.2799999999999999,1.0,0.3529411764705882,1.0,0.4032258064516129,0.5555555555555555,0.3750000000000001,0.0,0.55,0.1887755102040816,0.4652870493991988,0.9730090860502404,0.5,0.5555555555555556,0.4444444444444445,1.0,1.0,1.0,3
0.7548430193720777,0.0,0.0,0.0,0.1176470588235294,1.0,0.1774193548387096,0.4444444444444445,0.7166666666666667,0.1428571428571428,0.8,0.489795918367347,0.8244325767690253,0.5122928915018706,0.5,0.1666666666666666,0.3333333333333333,1.0,1.0,0.0,2
0.2017368069472278,1.0,0.6400000000000001,0.0,0.4117647058823529,0.0,0.2419354838709677,1.0,0.9833333333333332,0.4285714285714285,0.55,0.1755102040816326,0.6275033377837116,0.6477819347942276,0.1428571428571429,0.0555555555555555,0.1111111111111111,1.0,0.0,1.0,2
0.5531062124248498,1.0,0.48,0.0,0.2941176470588235,1.0,0.3387096774193548,0.5555555555555555,0.9833333333333332,1.0,0.3,0.1938775510204081,0.1214953271028037,0.5483698556921432,0.4285714285714286,0.5555555555555556,0.3888888888888889,1.0,1.0,0.0,1
0.8817635270541082,1.0,0.2799999999999999,0.0,0.7647058823529411,1.0,0.6774193548387097,0.5555555555555555,0.5083333333333334,0.1428571428571428,0.7000000000000001,0.616326530612245,0.4753004005340453,0.3086584714056654,0.2142857142857143,0.1111111111111111,0.7222222222222221,1.0,1.0,0.0,1
0.0594522378089512,1.0,0.2799999999999999,1.0,0.0,0.0,0.4838709677419355,0.3333333333333333,0.5083333333333334,0.7142857142857142,0.05,0.1158163265306122,0.0060080106809078,0.4171566007482629,0.3571428571428571,0.0,0.2222222222222222,0.0,1.0,0.0,0
0.4428857715430863,0.0,0.2,0.0,0.2352941176470588,1.0,0.2741935483870967,0.8888888888888888,0.125,1.0,0.9,0.3719387755102041,0.8037383177570092,0.8158738642437199,0.7142857142857143,0.1666666666666666,0.0555555555555555,1.0,0.0,1.0,3
0.0454241816967267,1.0,0.0,1.0,0.5882352941176471,1.0,0.032258064516129,0.7777777777777778,0.7500000000000001,0.2857142857142857,0.95,0.1790816326530612,0.4399198931909212,0.5598610368786745,0.2142857142857143,0.3888888888888888,0.4444444444444445,1.0,1.0,0.0,1
0.0761523046092184,1.0,0.0,1.0,0.0,0.0,0.6451612903225806,0.5555555555555555,0.6916666666666668,0.7142857142857142,0.2,0.0530612244897959,0.7770360480640854,0.5224478888295029,0.1428571428571429,0.2222222222222222,0.8888888888888888,0.0,0.0,1.0,1
0.1229124916499666,0.0,0.0,1.0,0.4705882352941176,1.0,0.1774193548387096,0.7777777777777778,0.0166666666666667,0.8571428571428572,0.75,0.5566326530612246,0.4692923898531375,0.78941742383752,0.7142857142857143,0.3888888888888888,0.0,1.0,1.0,1.0,3
0.5310621242484971,0.0,0.16,1.0,0.0,1.0,0.1935483870967742,0.4444444444444445,0.3666666666666666,0.5714285714285714,0.15,0.4137755102040816,0.5153538050734312,0.0625334045964724,0.1428571428571429,0.0555555555555555,0.1111111111111111,1.0,1.0,1.0,0
0.4362057448229793,0.0,0.2799999999999999,1.0,0.0,1.0,0.7580645161290323,0.1111111111111111,0.8416666666666667,1.0,0.1,0.2760204081632653,0.6668891855807744,0.1929449492250133,0.0,0.1666666666666666,0.2777777777777777,1.0,0.0,1.0,0
0.1229124916499666,0.0,0.0,0.0,0.1176470588235294,0.0,0.4354838709677419,0.7777777777777778,0.1083333333333333,0.8571428571428572,0.5,0.2209183673469388,0.0987983978638183,0.1261357562800641,0.6428571428571429,0.4444444444444444,0.1111111111111111,0.0,0.0,1.0,0
0.9331997327989312,0.0,0.52,1.0,0.1764705882352941,1.0,0.8709677419354839,0.1111111111111111,0.8750000000000001,0.8571428571428572,0.2,0.2265306122448979,0.1595460614152202,0.4965259219668626,0.3571428571428571,0.2777777777777778,0.9444444444444444,1.0,1.0,1.0,2
0.447561790247161,1.0,0.48,1.0,0.1176470588235294,0.0,0.2741935483870967,0.2222222222222222,0.725,0.8571428571428572,0.95,0.1265306122448979,0.1702269692923897,0.0018706574024585,0.0714285714285714,0.2777777777777778,0.3333333333333333,0.0,0.0,0.0,0
0.8022712090848365,1.0,0.72,1.0,0.7058823529411764,1.0,0.7258064516129032,0.5555555555555555,0.2249999999999999,0.1428571428571428,0.95,0.6551020408163266,0.7630173564753004,0.0905932656333511,0.3571428571428571,0.0,0.9444444444444444,1.0,0.0,1.0,1
0.1289245156980628,1.0,0.52,1.0,0.8823529411764706,0.0,0.5483870967741935,0.3333333333333333,0.9416666666666668,0.4285714285714285,1.0,0.501530612244898,0.4873164218958611,0.9139497594869052,0.5,0.4444444444444444,0.1666666666666666,1.0,0.0,1.0,3
0.3453573814295257,1.0,0.0799999999999999,1.0,0.4117647058823529,0.0,0.9838709677419356,0.0,0.6250000000000001,0.5714285714285714,0.9,0.436734693877551,0.2556742323097463,0.7461250668091929,0.3571428571428571,0.1666666666666666,0.0,0.0,0.0,1.0,2
0.9505678022712092,0.0,0.8400000000000001,0.0,0.0,1.0,0.9193548387096774,0.8888888888888888,0.4666666666666667,0.7142857142857142,0.0,0.7336734693877551,0.9499332443257678,0.9059326563335114,0.3571428571428571,0.5,0.7777777777777777,1.0,0.0,1.0,3
0.3587174348697395,0.0,0.2799999999999999,0.0,0.1764705882352941,0.0,0.6612903225806451,0.6666666666666666,0.5083333333333334,0.0,0.25,0.0020408163265306,0.0921228304405874,0.9227685729556386,0.4285714285714286,0.0,0.5555555555555556,1.0,1.0,1.0,3
0.072812291249165,1.0,0.4400000000000001,1.0,0.5294117647058824,0.0,0.8064516129032258,0.3333333333333333,0.0833333333333333,0.4285714285714285,0.95,0.5301020408163266,0.5160213618157543,0.8594334580438268,0.3571428571428571,0.2222222222222222,0.5555555555555556,1.0,1.0,1.0,3
0.8810955243820977,1.0,0.48,1.0,0.0,1.0,1.0,0.5555555555555555,0.6749999999999999,0.0,0.15,0.5903061224489796,0.9686248331108144,0.0849812934259754,0.3571428571428571,0.1111111111111111,0.8888888888888888,1.0,1.0,0.0,1
0.0400801603206413,1.0,0.6400000000000001,1.0,0.4117647058823529,1.0,0.0,0.0,0.9416666666666668,0.2857142857142857,0.65,0.538265306122449,0.5300400534045393,0.1092998396579369,0.3571428571428571,0.0,0.1111111111111111,1.0,1.0,0.0,0
0.8002672010688043,0.0,0.0,1.0,0.0588235294117647,0.0,0.9193548387096774,0.4444444444444445,0.1416666666666667,0.4285714285714285,0.15,0.2377551020408163,0.8464619492656875,0.946018172100481,0.8571428571428571,0.5555555555555556,0.5555555555555556,0.0,1.0,1.0,3
0.3740814963259853,1.0,0.6400000000000001,0.0,0.1764705882352941,1.0,0.8064516129032258,0.0,0.2416666666666667,0.8571428571428572,0.2,0.0704081632653061,0.5540720961281709,0.198556921432389,0.7857142857142857,0.6666666666666666,0.3888888888888889,1.0,1.0,0.0,0
0.7307949231796929,1.0,0.8400000000000001,0.0,0.4117647058823529,0.0,0.1612903225806451,0.2222222222222222,0.3416666666666667,1.0,0.95,0.1755102040816326,0.10347129506008,0.8957776590058791,0.7142857142857143,0.0555555555555555,0.7777777777777777,0.0,1.0,0.0,3
0.3199732798931196,1.0,0.0,0.0,0.0,1.0,0.5,0.8888888888888888,0.6666666666666666,0.7142857142857142,0.0,0.5142857142857143,0.8397863818424565,0.5376803848209513,0.1428571428571429,0.2777777777777778,0.1111111111111111,1.0,1.0,0.0,2
0.2104208416833667,1.0,0.0,0.0,0.2352941176470588,0.0,0.1935483870967742,0.8888888888888888,0.9833333333333332,0.2857142857142857,0.65,0.0760204081632653,0.0387182910547396,0.2036344200962052,0.8571428571428571,0.5555555555555556,0.7222222222222221,1.0,0.0,0.0,0
0.541750167000668,0.0,0.32,0.0,0.2941176470588235,1.0,0.1290322580645161,0.5555555555555555,0.6916666666666668,0.1428571428571428,0.45,0.048469387755102,0.2623497997329772,0.9847675040085516,0.0714285714285714,0.1111111111111111,0.6111111111111112,1.0,1.0,1.0,3
0.2424849699398797,0.0,0.48,0.0,0.1764705882352941,1.0,0.532258064516129,0.2222222222222222,0.1916666666666666,0.2857142857142857,0.35,0.338265306122449,0.8711615487316422,0.4404061998931052,0.5,0.4444444444444444,0.6111111111111112,1.0,1.0,1.0,1
0.8162992651970609,1.0,0.24,1.0,0.0588235294117647,0.0,0.6451612903225806,1.0,0.7000000000000001,1.0,0.7000000000000001,0.1030612244897959,0.8618157543391187,0.8901656867985034,0.3571428571428571,0.2777777777777778,0.0555555555555555,1.0,0.0,0.0,3
0.2057448229792919,0.0,0.12,0.0,0.5882352941176471,0.0,0.3064516129032257,0.8888888888888888,0.0916666666666666,0.8571428571428572,0.95,0.741326530612245,0.8184245660881175,0.2720470336718332,0.9285714285714284,0.3888888888888888,0.0555555555555555,0.0,0.0,0.0,1
0.550434201736807,1.0,0.0,0.0,0.0,1.0,0.1774193548387096,1.0,0.4416666666666667,0.4285714285714285,0.4,0.6903061224489797,0.9445927903871828,0.922234099412079,1.0,0.1666666666666666,0.8888888888888888,1.0,1.0,0.0,3
0.4068136272545091,0.0,0.4000000000000001,0.0,0.2352941176470588,1.0,0.6290322580645161,0.0,0.6,0.2857142857142857,0.8,0.4081632653061224,0.6375166889185581,0.6189203634420095,0.7857142857142857,0.2777777777777778,0.7777777777777777,1.0,0.0,1.0,2
0.3774215096860388,0.0,0.0399999999999999,0.0,0.1176470588235294,1.0,0.0806451612903225,0.8888888888888888,0.2833333333333333,0.8571428571428572,0.9,0.6336734693877552,0.7149532710280373,0.0566541956173169,1.0,0.7222222222222222,0.2222222222222222,1.0,1.0,0.0,0
0.2110888443553774,0.0,0.32,0.0,0.0,0.0,0.1451612903225806,0.4444444444444445,0.5333333333333333,0.2857142857142857,0.55,0.3683673469387755,0.1775700934579439,0.4764831640833779,0.4285714285714286,0.3333333333333333,0.9444444444444444,0.0,1.0,0.0,1
0.1255845023380093,0.0,0.96,1.0,0.1764705882352941,1.0,0.0806451612903225,0.7777777777777778,0.5583333333333335,0.1428571428571428,0.3,0.248469387755102,0.1481975967957276,0.2632282202030999,0.2857142857142857,0.0,0.7777777777777777,1.0,0.0,0.0,0
0.8450233800935205,1.0,0.32,0.0,0.0588235294117647,0.0,0.4354838709677419,0.4444444444444445,0.95,1.0,1.0,0.2239795918367347,0.5380507343124166,0.5505077498663815,1.0,0.1111111111111111,0.2222222222222222,0.0,0.0,1.0,2
0.5778223112892452,1.0,0.48,1.0,0.2941176470588235,1.0,0.8225806451612904,0.1111111111111111,0.6749999999999999,0.5714285714285714,0.45,0.3301020408163265,0.918558077436582,0.965526456440406,0.8571428571428571,0.2777777777777778,0.6666666666666665,1.0,0.0,1.0,3
0.5090180360721444,1.0,0.3599999999999999,1.0,0.0588235294117647,1.0,0.4838709677419355,0.3333333333333333,0.1916666666666666,0.1428571428571428,0.1,0.2086734693877551,0.096128170894526,0.832709780865847,0.9285714285714284,0.7222222222222222,0.4444444444444445,1.0,1.0,0.0,3
0.9158316633266534,1.0,0.72,0.0,0.3529411764705882,0.0,0.6774193548387097,0.6666666666666666,0.45,0.2857142857142857,0.75,0.2341836734693878,0.5066755674232309,0.4540352752538749,0.2857142857142857,0.2222222222222222,0.7222222222222221,1.0,0.0,1.0,2
0.5684702738810956,0.0,0.76,0.0,0.2941176470588235,1.0,0.064516129032258,0.8888888888888888,0.0999999999999999,0.7142857142857142,0.45,0.3209183673469388,0.5333778371161548,0.2814003206841261,0.5,0.0555555555555555,0.6666666666666665,1.0,0.0,0.0,1
0.0,0.0,0.72,0.0,0.7058823529411764,1.0,0.8387096774193549,0.2222222222222222,0.4249999999999999,0.4285714285714285,0.95,0.2571428571428572,0.3931909212283043,0.5585248530197755,0.5714285714285714,0.6666666666666666,0.0,1.0,0.0,1.0,1
0.8209752839011357,0.0,0.6000000000000001,1.0,0.0,1.0,0.2903225806451612,0.0,0.525,0.4285714285714285,0.5,0.213265306122449,0.3491321762349799,0.357830037413148,0.6428571428571429,0.0,0.5555555555555556,1.0,1.0,0.0,1
0.8102872411489648,0.0,0.0,1.0,0.4117647058823529,0.0,0.467741935483871,0.3333333333333333,0.3333333333333333,0.1428571428571428,0.5,0.1464285714285714,0.0847797062750333,0.922234099412079,0.0,0.0555555555555555,0.9444444444444444,0.0,0.0,1.0,3
0.7982631930527724,0.0,0.48,0.0,0.0588235294117647,0.0,0.1774193548387096,0.8888888888888888,0.1416666666666667,0.2857142857142857,0.1,0.0913265306122449,0.1815754339118824,0.0713522180652057,0.0,0.0,0.1111111111111111,0.0,1.0,1.0,0
0.8022712090848365,0.0,0.2,0.0,0.4117647058823529,0.0,0.5483870967741935,0.0,0.8083333333333335,0.5714285714285714,0.45,0.6326530612244898,0.9552736982643524,0.3137359700694815,0.2142857142857143,0.3333333333333333,0.4444444444444445,0.0,0.0,0.0,2
0.8423513694054776,1.0,0.8,0.0,0.5882352941176471,1.0,0.2096774193548387,0.2222222222222222,0.2249999999999999,1.0,0.55,0.5627551020408164,0.5767690253671561,0.5149652592196686,0.2142857142857143,0.1666666666666666,0.4999999999999999,1.0,1.0,0.0,2
0.0634602538410153,0.0,0.3599999999999999,0.0,0.4705882352941176,0.0,0.7096774193548387,0.5555555555555555,0.7083333333333334,0.0,0.9,0.4862244897959184,0.3230974632843791,0.6010154997327631,0.7142857142857143,0.2222222222222222,0.7222222222222221,1.0,1.0,0.0,1
0.2164328657314629,1.0,0.4000000000000001,0.0,0.6470588235294118,0.0,0.5806451612903226,0.3333333333333333,0.1166666666666667,0.2857142857142857,0.9,0.2755102040816327,0.1889185580774365,0.1229289150187065,0.4285714285714286,0.2222222222222222,0.6666666666666665,0.0,1.0,0.0,0
0.1195724782899131,1.0,0.6400000000000001,1.0,0.5294117647058824,1.0,0.1129032258064516,0.0,0.4249999999999999,0.2857142857142857,0.55,0.7285714285714286,0.6675567423230975,0.5831106360235168,0.6428571428571429,0.1111111111111111,0.8333333333333333,1.0,0.0,0.0,2
0.6513026052104209,0.0,0.0,0.0,0.0,1.0,0.6612903225806451,0.6666666666666666,0.5666666666666668,0.1428571428571428,0.1,0.9127551020408164,0.9826435246995996,0.9053981827899518,0.7142857142857143,0.5555555555555556,0.2222222222222222,1.0,0.0,1.0,3
0.9131596526386104,1.0,0.0,0.0,0.1176470588235294,1.0,0.6129032258064516,0.8888888888888888,0.8250000000000001,1.0,0.8500000000000001,0.2938775510204082,0.2563417890520694,0.0112239444147514,0.2142857142857143,0.1111111111111111,0.8333333333333333,1.0,1.0,0.0,0
0.1810287241148964,1.0,0.76,1.0,0.0588235294117647,1.0,0.1290322580645161,0.4444444444444445,0.0,0.4285714285714285,0.1,0.6336734693877552,0.8090787716955941,0.7979690005344735,0.9285714285714284,0.611111111111111,0.1111111111111111,1.0,1.0,0.0,3
0.7742150968603876,0.0,0.92,1.0,0.2352941176470588,0.0,0.0806451612903225,0.7777777777777778,0.8666666666666666,0.0,0.3,0.0387755102040816,0.4439252336448598,0.340726884019241,0.5,0.0,0.2777777777777777,0.0,0.0,0.0,1
0.2772211088844356,1.0,0.0,0.0,0.0,1.0,0.7258064516129032,0.1111111111111111,0.0166666666666667,0.4285714285714285,0.05,0.5852040816326531,0.596128170894526,0.374933190807055,0.4285714285714286,0.5555555555555556,0.4999999999999999,1.0,1.0,0.0,1
0.1503006012024048,0.0,0.6800000000000002,0.0,0.0,1.0,0.6129032258064516,0.7777777777777778,0.1166666666666667,0.4285714285714285,1.0,0.1647959183673469,0.3190921228304405,0.2902191341528594,0.7857142857142857,0.611111111111111,0.1111111111111111,1.0,1.0,1.0,0
0.2758851035404142,1.0,0.0,0.0,0.0,1.0,0.3870967741935484,0.6666666666666666,0.5583333333333335,0.4285714285714285,0.0,0.3602040816326531,0.1475300400534045,0.2314270443613041,0.5,0.5,0.0,1.0,1.0,1.0,0
0.14562458249833,0.0,0.96,0.0,0.4117647058823529,0.0,0.064516129032258,0.6666666666666666,0.1833333333333333,0.7142857142857142,0.4,0.2066326530612245,0.4279038718291055,0.1563335114911812,0.2857142857142857,0.0555555555555555,0.0,1.0,0.0,0.0,0
0.8016032064128258,1.0,0.4400000000000001,1.0,0.1764705882352941,0.0,0.1290322580645161,0.2222222222222222,0.95,1.0,0.35,0.2806122448979592,0.5594125500667556,0.6258685195082843,0.5,0.5,0.2222222222222222,0.0,1.0,0.0,2
0.5617902471609887,0.0,0.2,0.0,0.0,1.0,0.467741935483871,0.5555555555555555,0.05,0.8571428571428572,0.05,0.5056122448979592,0.7596795727636849,0.6654195617316943,0.7142857142857143,0.2777777777777778,0.4444444444444445,1.0,1.0,0.0,3
0.3707414829659319,1.0,0.6400000000000001,1.0,0.4705882352941176,1.0,0.5645161290322581,0.6666666666666666,0.175,0.2857142857142857,0.55,0.4663265306122449,0.3197596795727636,0.6400320684126135,0.7142857142857143,0.2777777777777778,0.0555555555555555,1.0,1.0,1.0,2
0.0621242484969939,1.0,0.8400000000000001,0.0,0.0588235294117647,0.0,0.4032258064516129,0.0,0.9666666666666668,0.5714285714285714,0.1,0.2076530612244898,0.0186915887850467,0.1207910208444681,0.8571428571428571,0.2777777777777778,0.8333333333333333,0.0,1.0,1.0,0
0.2879091516366066,0.0,0.32,0.0,0.0588235294117647,0.0,1.0,0.6666666666666666,0.6166666666666666,0.8571428571428572,0.1,0.6000000000000001,0.4833110814419226,0.9516301443078568,0.2142857142857143,0.3888888888888888,0.3888888888888889,1.0,1.0,1.0,3
0.6138944555778224,0.0,0.92,1.0,0.0588235294117647,0.0,0.7741935483870968,0.0,0.1666666666666667,1.0,0.4,0.0989795918367347,0.596128170894526,0.135489043292357,0.8571428571428571,0.0555555555555555,0.8333333333333333,0.0,1.0,1.0,0
0.0006680026720107,0.0,0.4000000000000001,1.0,0.4117647058823529,0.0,0.5645161290322581,0.1111111111111111,0.9916666666666666,0.1428571428571428,0.6000000000000001,0.3596938775510204,0.8744993324432577,0.372260823089257,0.0714285714285714,0.0555555555555555,0.6666666666666665,0.0,1.0,0.0,1
0.1269205076820307,1.0,0.8800000000000001,1.0,0.2352941176470588,1.0,0.5,0.8888888888888888,0.2333333333333334,0.4285714285714285,0.4,0.4852040816326531,0.3084112149532709,0.0448957776590058,0.0,0.1666666666666666,0.7222222222222221,1.0,1.0,1.0,0
0.4148296593186373,0.0,0.92,0.0,0.0,0.0,0.4193548387096774,0.5555555555555555,0.8666666666666666,0.2857142857142857,0.2,0.8051020408163266,0.9766355140186916,0.3062533404596472,0.6428571428571429,0.5555555555555556,0.0555555555555555,0.0,1.0,0.0,1
0.0454241816967267,0.0,0.0399999999999999,1.0,0.1176470588235294,0.0,0.5967741935483871,0.0,0.8666666666666666,1.0,0.45,0.198469387755102,0.1595460614152202,0.682789951897381,0.1428571428571429,0.3333333333333333,0.2777777777777777,1.0,0.0,1.0,1
0.9672678690714764,0.0,0.52,0.0,0.0,0.0,0.2903225806451612,0.7777777777777778,0.8833333333333334,0.5714285714285714,0.2,0.2642857142857143,0.0614152202937249,0.2322287546766435,0.8571428571428571,0.5555555555555556,0.3888888888888889,0.0,0.0,0.0,1
0.7808951235804944,1.0,1.0000000000000002,0.0,0.8235294117647058,0.0,0.967741935483871,0.4444444444444445,0.2833333333333333,1.0,1.0,0.5698979591836735,0.5540720961281709,0.7397113842864778,0.0714285714285714,0.0,1.0,0.0,0.0,1.0,3
0.0521042084168337,1.0,0.8,0.0,0.1764705882352941,0.0,0.0806451612903225,1.0,0.075,1.0,0.5,0.4122448979591837,0.67890520694259,0.7087119187600213,0.5,0.2222222222222222,0.4999999999999999,0.0,0.0,1.0,2
0.935871743486974,0.0,0.92,1.0,0.3529411764705882,0.0,0.7741935483870968,0.7777777777777778,0.3666666666666666,1.0,0.45,0.5826530612244899,0.596128170894526,0.0232495991448423,0.4285714285714286,0.4444444444444444,0.8888888888888888,0.0,1.0,0.0,0
0.4375417501670007,0.0,0.0,0.0,0.3529411764705882,0.0,0.9516129032258064,0.0,0.075,0.8571428571428572,0.45,0.6193877551020409,0.5086782376502003,0.4115446285408872,0.7857142857142857,0.3333333333333333,0.6111111111111112,0.0,1.0,1.0,1
